NAME: (+)-Chelidonine
SCANNUMBER: RIKEN_MONA_0
PRECURSORMZ: 354.133599
PRECURSORTYPE: [M+H]+
IONMODE: Positive
SPECTRUMTYPE: MS2
COLLISIONENERGY: 10 eV
FORMULA: C20H19NO5
SMILES: CN1Cc2c(ccc3c2OCO3)[C@H]2[C@@H](O)Cc3cc4c(cc3[C@H]21)OCO4
INCHI: InChI=1S/C20H19NO5/c1-21-7-13-11(2-3-15-20(13)26-9-23-15)18-14(22)4-10-5-16-17(25-8-24-16)6-12(10)19(18)21/h2-3,5-6,14,18-19,22H,4,7-9H2,1H3/t14-,18-,19+/m0/s1
INCHIKEY: GHKISGDRQRSCII-ZOCIIQOWSA-N
RETENTIONTIME: 4.533533
COMMENT: dataset=RIKEN_MONA; source_file=external_data/raw_libraries/RIKEN_MONA.xlsx; source_row=0; RT_sec=272.01198
Num Peaks: 53
135.041610 2.900000
135.047350 1.800000
136.045170 0.600000
143.046250 1.000000
146.058360 0.500000
159.044480 1.100000
161.059540 2.800000
163.027710 0.700000
163.039630 4.300000
173.057710 0.800000
176.073620 0.900000
178.082210 0.800000
188.070420 1.800000
189.069640 13.100000
190.075420 2.100000
205.064560 0.600000
205.075090 0.500000
207.078700 2.400000
217.063600 7.600000
218.070040 2.200000
219.075070 1.200000
235.073120 1.700000
237.090620 1.500000
238.103330 0.800000
245.067550 0.800000
246.056230 0.600000
247.075740 30.600000
248.079180 7.400000
248.096760 0.600000
249.081510 0.900000
263.067630 0.700000
265.067380 0.500000
265.079620 0.800000
265.093290 1.100000
266.087340 0.500000
275.071230 64.600000
276.076750 15.000000
277.080140 2.700000
293.080810 2.000000
295.097900 2.100000
296.098630 1.700000
305.080960 15.300000
306.081940 2.800000
306.093440 0.600000
307.095580 0.800000
323.055820 0.900000
323.091920 20.100000
324.096560 3.400000
336.110810 1.700000
336.125060 3.500000
354.086060 0.700000
354.133700 100.000000
354.184360 2.200000

NAME: (+)-Corydaline
SCANNUMBER: RIKEN_MONA_1
PRECURSORMZ: 370.201285
PRECURSORTYPE: [M+H]+
IONMODE: Positive
SPECTRUMTYPE: MS2
COLLISIONENERGY: 10 eV
FORMULA: C22H27NO4
SMILES: COc1cc2c(cc1OC)[C@H]1[C@@H](C)c3ccc(OC)c(OC)c3CN1CC2
INCHI: InChI=1S/C22H27NO4/c1-13-15-6-7-18(24-2)22(27-5)17(15)12-23-9-8-14-10-19(25-3)20(26-4)11-16(14)21(13)23/h6-7,10-11,13,21H,8-9,12H2,1-5H3/t13-,21+/m0/s1
INCHIKEY: VRSRXLJTYQVOHC-YEJXKQKISA-N
RETENTIONTIME: 4.864400
COMMENT: dataset=RIKEN_MONA; source_file=external_data/raw_libraries/RIKEN_MONA.xlsx; source_row=1; RT_sec=291.864
Num Peaks: 27
133.065960 0.800000
135.083600 0.500000
136.051450 1.500000
150.068250 3.300000
151.075290 2.200000
165.091090 11.200000
166.095370 0.700000
176.068890 1.000000
176.077650 0.500000
177.074570 1.100000
177.086180 1.000000
179.105580 1.800000
190.082150 1.100000
190.093200 0.500000
192.102870 21.000000
193.105620 3.300000
204.095950 0.500000
204.105930 0.700000
205.110030 2.600000
206.114270 0.800000
218.116760 0.800000
322.142520 0.700000
354.170500 1.700000
355.173030 1.100000
355.186340 0.700000
370.201690 100.000000
370.257080 3.100000

NAME: (+)-Epicatechin
SCANNUMBER: RIKEN_MONA_2
PRECURSORMZ: 291.086315
PRECURSORTYPE: [M+H]+
IONMODE: Positive
SPECTRUMTYPE: MS2
COLLISIONENERGY: 10 eV
FORMULA: C15H14O6
SMILES: Oc1cc(O)c2c(c1)O[C@@H](c1ccc(O)c(O)c1)[C@@H](O)C2
INCHI: InChI=1S/C15H14O6/c16-8-4-11(18)9-6-13(20)15(21-14(9)5-8)7-1-2-10(17)12(19)3-7/h1-5,13,15-20H,6H2/t13-,15-/m0/s1
INCHIKEY: PFTAWBLQPZVEMU-ZFWWWQNUSA-N
RETENTIONTIME: 3.443033
COMMENT: dataset=RIKEN_MONA; source_file=external_data/raw_libraries/RIKEN_MONA.xlsx; source_row=2; RT_sec=206.58198
Num Peaks: 38
67.054270 3.700000
97.028740 3.400000
105.889370 3.200000
111.044810 2.300000
119.047360 5.400000
123.022450 3.200000
123.034660 11.100000
123.044170 51.000000
124.028240 3.500000
139.033080 28.000000
139.038970 100.000000
140.038960 11.000000
143.053850 2.900000
145.065720 5.400000
147.036640 5.000000
147.044200 24.300000
148.048580 3.100000
151.031680 12.300000
151.037000 4.600000
152.044770 2.100000
153.043170 2.600000
154.075670 2.500000
161.058560 9.700000
165.043840 3.000000
165.059130 12.300000
166.061690 4.600000
166.261200 2.100000
170.051820 2.900000
179.055850 3.300000
190.057650 2.400000
202.113480 2.200000
207.066990 7.400000
208.067870 2.700000
230.451600 2.500000
249.059100 3.100000
273.081390 9.100000
291.056820 2.900000
291.089940 39.600000

NAME: (+)-Tubocurarine chloride
SCANNUMBER: RIKEN_MONA_3
PRECURSORMZ: 609.295913
PRECURSORTYPE: [M+H]+
IONMODE: Positive
SPECTRUMTYPE: MS2
COLLISIONENERGY: 10 eV
FORMULA: C37H40N2O6
SMILES: COc1cc2c3cc1Oc1cc(ccc1O)CC1c4c(cc(OC)c([O-])c4Oc4ccc(cc4)C[C@@H]3N(C)CC2)CC[N+]1(C)C
INCHI: InChI=1S/C37H40N2O6/c1-38-14-12-24-19-32(42-4)33-21-27(24)28(38)16-22-6-9-26(10-7-22)44-37-35-25(20-34(43-5)36(37)41)13-15-39(2,3)29(35)17-23-8-11-30(40)31(18-23)45-33/h6-11,18-21,28-29H,12-17H2,1-5H3,(H-,40,41)/t28-,29?/m0/s1
INCHIKEY: JFJZZMVDLULRGK-XLTVJXRZSA-N
RETENTIONTIME: 3.406667
COMMENT: dataset=RIKEN_MONA; source_file=external_data/raw_libraries/RIKEN_MONA.xlsx; source_row=3; RT_sec=204.40002
Num Peaks: 71
177.068480 0.600000
192.103550 0.600000
193.108800 0.500000
221.058150 0.600000
252.075900 0.500000
266.122440 0.700000
268.061040 0.600000
279.114590 0.600000
282.100950 0.600000
282.110900 0.700000
284.132260 1.400000
285.108760 0.800000
285.126220 0.500000
288.814210 0.500000
289.091090 0.600000
295.123290 1.900000
297.126070 1.600000
297.135860 1.100000
297.147710 1.100000
298.135470 0.700000
299.135350 0.500000
307.122800 0.600000
308.119080 0.600000
310.156890 0.600000
311.085660 0.500000
323.155670 0.700000
325.174560 0.500000
363.103670 0.600000
369.441500 1.100000
386.143070 0.600000
386.163670 0.500000
386.180850 1.100000
387.174620 1.400000
396.146670 0.500000
397.146670 0.500000
398.135440 0.900000
398.171570 0.500000
400.172850 0.500000
411.151920 0.500000
412.185520 0.700000
413.170380 0.500000
425.176850 0.800000
442.228000 0.500000
444.057040 0.500000
456.160460 0.700000
457.211640 0.500000
490.192660 0.500000
501.958250 1.200000
505.187650 0.700000
505.227780 0.700000
506.073880 0.500000
520.210750 0.800000
521.229130 1.000000
522.208920 0.600000
523.216000 0.600000
534.197200 0.500000
534.221980 0.600000
552.252440 0.500000
553.239690 0.600000
564.223140 1.800000
564.243770 6.400000
565.232670 2.700000
566.197940 0.500000
566.265380 1.900000
566.279170 0.700000
577.258610 0.900000
578.263850 0.600000
607.739500 0.500000
608.718510 0.500000
609.235530 1.800000
609.294070 100.000000

NAME: (-)-B-Hydrastine
SCANNUMBER: RIKEN_MONA_4
PRECURSORMZ: 384.144164
PRECURSORTYPE: [M+H]+
IONMODE: Positive
SPECTRUMTYPE: MS2
COLLISIONENERGY: 10 eV
FORMULA: C21H21NO6
SMILES: COc1ccc2c(c1OC)C(=O)O[C@@H]2[C@H]1c2cc3c(cc2CCN1C)OCO3
INCHI: InChI=1S/C21H21NO6/c1-22-7-6-11-8-15-16(27-10-26-15)9-13(11)18(22)19-12-4-5-14(24-2)20(25-3)17(12)21(23)28-19/h4-5,8-9,18-19H,6-7,10H2,1-3H3/t18-,19+/m1/s1
INCHIKEY: JZUTXVTYJDCMDU-MOPGFXCFSA-N
RETENTIONTIME: 4.211233
COMMENT: dataset=RIKEN_MONA; source_file=external_data/raw_libraries/RIKEN_MONA.xlsx; source_row=4; RT_sec=252.67398
Num Peaks: 115
147.041550 0.800000
149.053130 1.200000
149.065460 1.200000
166.058040 1.300000
175.075130 1.200000
176.059540 0.900000
176.079970 0.500000
177.075380 0.600000
178.034850 0.600000
188.070270 1.400000
189.074430 1.800000
189.963270 0.600000
190.086620 23.200000
191.082500 2.300000
191.088680 6.300000
193.047390 0.900000
199.545780 0.700000
206.068910 0.500000
206.088030 0.700000
207.083390 0.700000
209.720170 0.600000
217.057130 0.900000
218.070690 0.500000
219.091710 0.600000
220.049970 0.600000
222.060760 2.700000
223.076610 0.600000
231.057220 0.600000
234.064100 1.800000
234.597640 0.500000
235.061520 0.500000
235.073530 1.100000
236.088880 0.800000
239.099900 1.100000
247.069920 1.100000
249.030090 0.700000
249.055690 2.300000
249.097180 0.500000
250.050860 1.100000
250.070370 0.800000
251.067960 1.100000
251.077100 1.600000
252.076830 1.300000
253.064250 0.700000
256.022610 0.700000
260.047330 0.700000
261.027860 0.600000
261.037990 0.500000
262.059880 1.200000
264.082610 0.600000
265.082760 6.500000
265.100250 0.500000
266.059940 0.800000
266.088650 0.800000
267.109650 1.100000
275.072330 0.700000
277.098940 0.700000
278.060700 1.400000
278.092650 0.900000
279.038600 0.500000
279.058780 1.000000
279.086300 1.100000
279.812560 0.600000
280.065160 3.700000
280.077880 2.000000
281.066650 0.600000
282.080660 1.400000
291.060390 1.200000
291.071380 1.700000
291.091950 0.500000
292.076320 2.300000
293.031890 0.600000
293.066590 0.700000
293.082030 8.300000
294.072390 0.600000
294.094330 2.300000
294.207400 0.600000
295.097020 6.800000
295.162660 0.700000
296.105470 0.500000
304.062380 0.700000
305.081050 0.600000
307.056980 0.600000
308.071750 0.600000
310.108950 0.900000
311.095210 0.900000
313.108250 0.500000
314.823240 0.600000
320.072300 2.300000
322.095950 0.900000
322.117710 0.500000
323.005340 0.800000
323.051120 0.600000
323.062040 0.600000
323.092380 28.100000
323.213260 0.600000
324.050960 0.900000
324.090030 10.400000
325.082520 0.700000
325.103270 0.600000
335.090970 2.200000
336.081670 0.500000
336.097020 0.600000
337.133060 0.600000
341.101500 0.600000
341.127720 1.000000
366.072570 0.700000
366.117550 0.700000
366.156560 0.500000
366.979520 0.500000
371.252560 0.500000
383.509280 0.500000
384.090420 0.700000
384.113490 1.700000
384.142790 100.000000

NAME: (-)-Eburnamonine
SCANNUMBER: RIKEN_MONA_5
PRECURSORMZ: 295.180490
PRECURSORTYPE: [M+H]+
IONMODE: Positive
SPECTRUMTYPE: MS2
COLLISIONENERGY: 10 eV
FORMULA: C19H22N2O
SMILES: CCC12CCCN3CCc4c(n(c5ccccc45)C(=O)C1)C32
INCHI: InChI=1S/C19H22N2O/c1-2-19-9-5-10-20-11-8-14-13-6-3-4-7-15(13)21(16(22)12-19)17(14)18(19)20/h3-4,6-7,18H,2,5,8-12H2,1H3
INCHIKEY: WYJAPUKIYAZSEM-UHFFFAOYSA-N
RETENTIONTIME: 4.648283
COMMENT: dataset=RIKEN_MONA; source_file=external_data/raw_libraries/RIKEN_MONA.xlsx; source_row=5; RT_sec=278.89698
Num Peaks: 44
84.081600 1.300000
144.080720 2.300000
150.091950 0.600000
152.107010 1.100000
168.078610 1.200000
180.078980 0.800000
181.082750 0.500000
182.093600 0.900000
195.103470 1.100000
196.067230 0.700000
196.077880 0.900000
197.082690 1.900000
198.123810 0.500000
208.111310 0.500000
209.117580 0.500000
210.128360 0.800000
212.104570 0.700000
222.091400 1.200000
223.094240 1.300000
223.104050 0.800000
224.107380 1.400000
224.132170 1.800000
225.116470 1.600000
226.116680 1.500000
226.128310 1.300000
235.098300 0.700000
236.105330 1.100000
237.109470 0.900000
238.120990 9.700000
239.124440 1.300000
239.133610 0.600000
249.115220 1.000000
252.138570 2.800000
253.137990 0.500000
253.163530 2.100000
253.173250 1.800000
254.171310 0.600000
264.133510 1.300000
264.146150 0.600000
266.153690 5.600000
267.153110 1.100000
267.163450 1.100000
295.180480 100.000000
295.230380 2.900000

NAME: (-)-Epicatechin
SCANNUMBER: RIKEN_MONA_6
PRECURSORMZ: 291.086315
PRECURSORTYPE: [M+H]+
IONMODE: Positive
SPECTRUMTYPE: MS2
COLLISIONENERGY: 10 eV
FORMULA: C15H14O6
SMILES: Oc1cc(O)c2c(c1)O[C@H](c1ccc(O)c(O)c1)[C@H](O)C2
INCHI: InChI=1S/C15H14O6/c16-8-4-11(18)9-6-13(20)15(21-14(9)5-8)7-1-2-10(17)12(19)3-7/h1-5,13,15-20H,6H2/t13-,15-/m1/s1
INCHIKEY: PFTAWBLQPZVEMU-UKRRQHHQSA-N
RETENTIONTIME: 3.433967
COMMENT: dataset=RIKEN_MONA; source_file=external_data/raw_libraries/RIKEN_MONA.xlsx; source_row=6; RT_sec=206.03802
Num Peaks: 38
68.991970 2.100000
77.041800 2.800000
99.042800 2.000000
105.037800 2.500000
111.049390 4.000000
112.047230 2.400000
115.041180 2.700000
119.046750 4.900000
120.048190 2.700000
123.043760 49.600000
124.025260 4.200000
124.045900 3.700000
124.053380 3.800000
127.037780 2.800000
139.039990 100.000000
140.000230 1.800000
140.043180 9.100000
141.041260 4.100000
143.048130 5.000000
147.044940 2.200000
151.038420 6.800000
151.073140 5.000000
159.038070 3.000000
163.037490 4.500000
165.055530 14.100000
179.079570 2.500000
180.077010 2.800000
181.045410 2.600000
189.047940 2.600000
207.043320 3.300000
207.060320 2.400000
207.074070 5.800000
244.067520 4.400000
249.071430 2.700000
273.066470 3.200000
273.080810 1.900000
291.081970 24.100000
291.095340 5.800000

NAME: (-)-Podophyllotoxin
SCANNUMBER: RIKEN_MONA_7
PRECURSORMZ: 415.138744
PRECURSORTYPE: [M+H]+
IONMODE: Positive
SPECTRUMTYPE: MS2
COLLISIONENERGY: 10 eV
FORMULA: C22H22O8
SMILES: COc1cc([C@@H]2c3cc4c(cc3[C@H](O)[C@H]3COC(=O)[C@H]23)OCO4)cc(OC)c1OC
INCHI: InChI=1S/C22H22O8/c1-25-16-4-10(5-17(26-2)21(16)27-3)18-11-6-14-15(30-9-29-14)7-12(11)20(23)13-8-28-22(24)19(13)18/h4-7,13,18-20,23H,8-9H2,1-3H3/t13-,18+,19-,20-/m0/s1
INCHIKEY: YJGVMLPVUAXIQN-XVVDYKMHSA-N
RETENTIONTIME: 6.261350
COMMENT: dataset=RIKEN_MONA; source_file=external_data/raw_libraries/RIKEN_MONA.xlsx; source_row=7; RT_sec=375.681
Num Peaks: 292
77.037090 0.800000
79.177290 0.900000
85.028060 1.100000
98.031000 1.000000
109.068680 0.900000
115.055150 1.500000
117.068150 4.400000
117.075060 1.600000
117.270390 0.600000
123.036620 0.800000
123.043130 0.600000
125.060150 1.700000
125.222660 0.600000
127.050610 0.900000
128.054410 0.600000
131.036480 0.800000
131.047320 1.500000
132.053880 0.900000
133.065410 1.300000
133.585330 0.700000
135.037980 2.300000
135.043430 2.900000
135.050370 0.900000
138.033950 0.900000
138.068700 0.900000
143.046260 3.100000
143.056120 1.300000
145.064500 22.000000
146.068910 5.100000
147.041640 2.300000
147.068970 1.200000
149.028590 2.000000
151.035340 2.100000
152.042800 1.300000
153.029340 0.700000
153.050700 2.400000
155.048340 0.700000
155.058790 0.700000
155.945040 1.000000
159.979290 0.800000
160.048310 2.600000
161.058820 4.700000
161.786850 0.900000
166.063720 0.800000
168.086960 1.500000
169.078670 4.400000
169.087620 3.100000
170.084790 0.800000
171.049590 3.200000
172.047700 0.600000
172.058910 1.300000
173.047560 1.400000
173.059690 15.400000
173.926900 0.900000
174.054690 0.700000
174.064160 2.400000
174.129810 0.800000
175.045460 0.600000
175.073940 1.800000
175.085220 1.100000
177.051220 0.900000
181.082260 3.400000
182.089860 0.700000
185.033360 0.700000
185.059220 44.500000
185.078080 1.200000
186.066390 9.100000
186.187710 0.600000
187.066510 0.800000
187.082000 0.600000
188.029500 0.600000
188.039050 0.800000
189.047670 5.000000
189.059050 3.500000
189.536580 0.600000
189.964600 0.700000
190.064500 2.900000
195.063670 1.900000
196.068590 1.600000
197.054860 0.800000
198.083280 0.800000
200.042720 0.600000
200.056400 0.600000
201.025070 0.800000
201.051970 7.400000
202.067110 0.700000
203.070760 8.800000
203.084960 1.500000
204.071750 1.800000
205.067520 0.700000
210.065630 0.600000
215.035830 0.600000
215.088960 0.800000
218.964920 0.700000
219.052260 1.500000
219.068590 12.200000
219.178590 1.000000
220.064670 2.400000
220.074780 1.200000
226.083310 1.300000
227.071530 0.700000
228.031450 0.600000
228.975100 0.700000
229.025090 1.700000
229.051830 37.200000
230.051680 4.100000
232.106810 0.800000
233.057910 1.400000
235.071700 0.700000
235.082720 0.700000
237.031890 0.700000
238.061450 2.000000
239.050950 0.600000
239.060320 0.900000
239.074720 1.100000
240.099150 0.600000
246.049150 0.700000
247.060360 73.800000
247.080840 1.300000
248.063020 10.400000
248.091250 0.900000
249.061610 3.600000
249.077760 2.600000
250.061190 0.800000
251.078740 0.700000
252.098880 0.700000
254.064320 1.300000
255.061340 1.300000
259.086760 1.700000
260.083040 1.500000
261.098970 0.800000
261.208680 0.700000
262.071080 0.700000
263.075470 0.800000
263.084660 1.600000
264.093780 0.700000
264.111570 0.700000
265.040620 0.800000
267.051360 0.700000
267.071290 1.500000
269.080780 2.600000
270.095760 0.700000
272.076450 0.600000
275.049800 0.900000
275.069610 0.700000
275.090150 0.900000
276.074550 2.000000
276.100950 2.000000
277.081700 1.600000
277.202120 0.900000
278.097530 1.900000
279.059360 0.900000
280.087650 0.900000
281.075740 0.600000
282.062590 0.800000
282.088070 21.800000
282.104950 2.800000
282.116030 0.800000
282.229640 0.600000
282.782710 0.800000
283.034670 0.600000
283.059510 0.900000
283.074130 2.300000
283.091310 5.800000
284.067840 0.700000
284.101990 0.700000
289.091580 3.000000
290.092560 2.400000
290.114260 0.700000
291.056400 0.600000
291.073580 0.600000
291.096560 1.300000
292.074890 2.200000
292.905820 0.900000
297.074550 1.800000
297.087130 1.500000
297.769840 0.700000
298.077880 2.700000
298.087520 2.600000
299.093900 2.600000
303.066010 2.800000
304.059390 1.100000
304.077510 0.900000
305.080930 1.900000
305.847200 0.600000
306.074460 2.200000
306.092190 8.400000
307.074890 1.100000
307.097500 3.600000
307.111210 0.700000
308.100860 2.500000
309.066680 0.700000
309.088040 0.700000
312.092710 3.800000
312.109440 1.400000
312.122620 0.600000
312.734990 0.600000
313.084140 1.700000
313.102720 15.700000
313.115080 9.600000
314.103090 2.900000
314.119230 2.300000
319.084470 0.600000
319.096620 0.900000
319.119380 2.100000
320.041720 0.700000
320.064700 0.600000
320.106630 2.400000
320.126500 0.800000
321.073850 1.600000
321.100460 1.600000
321.125400 0.700000
322.090520 0.700000
322.111480 3.100000
322.126800 1.400000
323.088990 1.700000
323.103150 0.800000
323.121580 0.900000
324.104640 0.600000
324.122620 0.900000
329.112950 0.800000
329.699340 0.600000
332.069980 1.400000
333.076630 1.900000
334.060210 1.200000
334.078430 1.000000
335.056850 0.900000
335.085450 1.100000
335.108060 0.600000
336.087190 2.100000
336.103970 2.600000
337.066220 0.600000
337.090850 0.700000
337.106810 2.300000
337.210110 0.600000
337.622380 0.700000
337.672550 1.200000
338.084960 1.400000
338.130400 1.200000
339.116880 0.900000
340.116150 0.600000
340.358890 0.600000
345.328770 0.600000
347.103210 0.700000
348.074280 0.700000
348.091400 0.700000
348.103030 0.700000
348.119110 0.800000
348.157840 0.800000
349.071690 1.900000
349.107330 1.200000
351.105740 1.200000
351.126620 3.700000
352.123630 2.600000
352.133150 1.600000
353.143010 2.000000
354.105220 0.800000
355.109380 1.300000
355.137150 3.100000
356.126740 0.600000
364.103090 0.600000
364.115720 0.600000
365.087740 0.600000
366.063140 0.800000
366.101320 3.200000
367.085210 0.600000
367.105650 2.500000
367.680450 0.600000
373.124790 0.900000
376.501710 0.700000
379.112850 2.100000
379.125340 4.300000
380.121220 3.700000
381.088810 0.600000
381.106930 1.000000
383.107360 0.800000
386.144470 0.700000
397.095490 1.700000
397.129430 100.000000
397.221500 1.300000
398.130950 25.000000
399.099910 0.600000
399.117740 1.800000
399.140660 0.800000
400.117490 0.900000
400.955050 0.600000
414.096190 0.700000
414.121280 12.300000
414.136320 14.700000
415.096740 2.300000
415.116490 2.500000
415.137700 14.800000

NAME: (2R)-2-Hydroxy-2-phenethylglucosinolate
SCANNUMBER: RIKEN_MONA_8
PRECURSORMZ: 438.053412
PRECURSORTYPE: [M-H]-
IONMODE: Negative
SPECTRUMTYPE: MS2
COLLISIONENERGY: 10 eV
FORMULA: C15H21NO10S2
SMILES: O=S(=O)(O)ON=C(CC(O)c1ccccc1)SC1OC(CO)C(O)C(O)C1O
INCHI: InChI=1S/C15H21NO10S2/c17-7-10-12(19)13(20)14(21)15(25-10)27-11(16-26-28(22,23)24)6-9(18)8-4-2-1-3-5-8/h1-5,9-10,12-15,17-21H,6-7H2,(H,22,23,24)
INCHIKEY: GAPDDBFHNYHZIS-UHFFFAOYSA-N
RETENTIONTIME: 2.706450
COMMENT: dataset=RIKEN_MONA; source_file=external_data/raw_libraries/RIKEN_MONA.xlsx; source_row=8; RT_sec=162.387
Num Peaks: 35
74.990150 5.700000
79.957910 1.100000
85.028280 0.700000
90.002090 0.900000
95.951750 13.500000
96.959880 53.000000
98.957340 2.600000
101.019230 0.500000
101.023930 0.800000
117.022670 0.500000
119.032060 0.800000
135.969920 12.800000
137.965650 1.000000
138.949950 1.200000
138.965440 0.900000
138.972320 2.500000
153.981630 2.800000
169.952740 0.600000
195.033020 3.500000
196.044430 6.900000
197.048830 0.600000
211.028950 0.900000
215.998290 0.800000
238.029140 0.700000
241.003340 1.100000
242.012700 2.000000
259.013000 9.100000
260.023070 2.500000
261.025180 0.600000
274.990080 4.400000
301.003020 1.000000
332.008480 2.100000
358.112730 0.700000
438.053530 100.000000
438.116820 0.800000

NAME: (2S)-2-Hydroxy-3-butenyl-glucosinolate
SCANNUMBER: RIKEN_MONA_9
PRECURSORMZ: 388.037762
PRECURSORTYPE: [M-H]-
IONMODE: Negative
SPECTRUMTYPE: MS2
COLLISIONENERGY: 10 eV
FORMULA: C11H19NO10S2
SMILES: C=CC(O)CC(=NOS(=O)(=O)O)SC1OC(CO)C(O)C(O)C1O
INCHI: InChI=1S/C11H19NO10S2/c1-2-5(14)3-7(12-22-24(18,19)20)23-11-10(17)9(16)8(15)6(4-13)21-11/h2,5-6,8-11,13-17H,1,3-4H2,(H,18,19,20)
INCHIKEY: MYHSVHWQEVDFQT-UHFFFAOYSA-N
RETENTIONTIME: 1.768383
COMMENT: dataset=RIKEN_MONA; source_file=external_data/raw_libraries/RIKEN_MONA.xlsx; source_row=9; RT_sec=106.10298
Num Peaks: 39
74.008170 3.200000
74.990420 1.300000
74.996180 2.400000
75.989190 2.000000
79.958730 1.900000
80.966090 2.000000
90.000090 3.900000
95.951820 12.400000
96.959980 95.900000
97.957010 1.500000
101.020780 3.900000
119.033810 1.800000
127.926670 3.100000
134.961840 2.400000
135.967010 5.700000
135.973420 3.400000
137.974820 1.600000
138.964860 1.400000
138.975010 2.200000
145.047390 1.400000
146.023640 2.500000
146.030210 1.900000
153.975910 1.500000
153.985400 1.700000
164.982700 1.400000
168.983800 2.400000
195.030650 13.000000
196.037660 2.600000
210.008150 6.400000
225.986760 1.300000
242.000900 1.400000
259.008640 8.900000
259.032140 1.900000
260.010440 1.900000
274.996460 1.300000
301.006680 3.100000
308.080470 2.200000
333.016200 1.400000
388.037200 100.000000

NAME: (S,S)-(+)-Tetrandrine
SCANNUMBER: RIKEN_MONA_10
PRECURSORMZ: 623.311564
PRECURSORTYPE: [M+H]+
IONMODE: Positive
SPECTRUMTYPE: MS2
COLLISIONENERGY: 10 eV
FORMULA: C38H42N2O6
SMILES: COc1ccc2cc1Oc1ccc(cc1)C[C@H]1c3cc(c(OC)cc3CCN1C)Oc1c(OC)c(OC)cc3c1[C@H](C2)N(C)CC3
INCHI: InChI=1S/C38H42N2O6/c1-39-15-13-25-20-32(42-4)34-22-28(25)29(39)17-23-7-10-27(11-8-23)45-33-19-24(9-12-31(33)41-3)18-30-36-26(14-16-40(30)2)21-35(43-5)37(44-6)38(36)46-34/h7-12,19-22,29-30H,13-18H2,1-6H3/t29-,30-/m0/s1
INCHIKEY: WVTKBKWTSCPRNU-KYJUHHDHSA-N
RETENTIONTIME: 4.186433
COMMENT: dataset=RIKEN_MONA; source_file=external_data/raw_libraries/RIKEN_MONA.xlsx; source_row=10; RT_sec=251.18598
Num Peaks: 30
174.086290 1.000000
175.082020 0.800000
176.115600 0.500000
191.093410 2.100000
192.096850 0.800000
309.103550 0.900000
381.145750 0.700000
381.175200 4.000000
381.186740 2.500000
383.146550 0.600000
399.149990 0.600000
486.201170 0.800000
516.264770 0.500000
535.238220 0.800000
550.235720 0.500000
560.226620 0.800000
576.246770 0.800000
580.226560 0.600000
580.265500 2.000000
581.273070 0.700000
581.290280 0.500000
592.232420 0.500000
592.252690 2.400000
592.275940 2.400000
593.255000 1.100000
593.278500 1.500000
594.293820 0.500000
623.241940 1.400000
623.312740 100.000000
623.368900 0.600000

NAME: 1-Isothiocyanato-4-(methylsulfinyl)-butane
SCANNUMBER: RIKEN_MONA_11
PRECURSORMZ: 178.035483
PRECURSORTYPE: [M+H]+
IONMODE: Positive
SPECTRUMTYPE: MS2
COLLISIONENERGY: 10 eV
FORMULA: C6H11NOS2
SMILES: CS(=O)CCCCN=C=S
INCHI: InChI=1S/C6H11NOS2/c1-10(8)5-3-2-4-7-6-9/h2-5H2,1H3
INCHIKEY: SUVMJBTUFCVSAD-UHFFFAOYSA-N
RETENTIONTIME: 3.691833
COMMENT: dataset=RIKEN_MONA; source_file=external_data/raw_libraries/RIKEN_MONA.xlsx; source_row=11; RT_sec=221.509979999999
Num Peaks: 28
55.054490 0.900000
55.058120 0.600000
62.992790 1.200000
71.501050 0.800000
71.985100 2.100000
71.992630 5.400000
72.993080 1.000000
87.027820 1.900000
98.058330 2.900000
99.055550 0.800000
99.060300 1.900000
114.036570 100.000000
114.218580 0.600000
115.037570 1.200000
115.045440 2.400000
115.050610 1.300000
116.037090 1.000000
118.066670 3.100000
119.043180 0.800000
119.053910 11.000000
119.064540 1.400000
132.050510 1.000000
144.050400 2.400000
146.064240 0.700000
148.063960 0.700000
149.927510 0.900000
178.014950 1.600000
178.034120 14.000000

NAME: 1-Methylsulfinylbutenyl isothiocyante
SCANNUMBER: RIKEN_MONA_12
PRECURSORMZ: 176.019833
PRECURSORTYPE: [M+H]+
IONMODE: Positive
SPECTRUMTYPE: MS2
COLLISIONENERGY: 10 eV
FORMULA: C6H9NOS2
SMILES: CS(=O)/C=C/CCN=C=S
INCHI: InChI=1S/C6H9NOS2/c1-10(8)5-3-2-4-7-6-9/h3,5H,2,4H2,1H3/b5-3+
INCHIKEY: QKGJFQMGPDVOQE-HWKANZROSA-N
RETENTIONTIME: 3.768467
COMMENT: dataset=RIKEN_MONA; source_file=external_data/raw_libraries/RIKEN_MONA.xlsx; source_row=12; RT_sec=226.108019999999
Num Peaks: 25
55.058020 2.800000
68.051860 3.900000
69.061830 22.800000
70.061580 3.100000
76.030790 4.300000
78.034980 5.700000
85.009490 7.700000
85.014000 8.700000
87.026460 100.000000
88.029960 2.700000
100.018040 3.800000
101.031520 13.900000
101.045790 6.300000
102.034970 2.800000
112.009950 4.400000
112.016760 8.300000
112.028920 4.900000
114.109080 3.000000
115.470830 3.600000
116.049270 3.300000
116.057370 11.300000
117.034020 17.200000
133.021710 3.900000
143.041200 15.100000
176.021670 49.100000

NAME: 11,12-Methylenedioxykopsinaline
SCANNUMBER: RIKEN_MONA_13
PRECURSORMZ: 399.191448
PRECURSORTYPE: [M+H]+
IONMODE: Positive
SPECTRUMTYPE: MS2
COLLISIONENERGY: 10 eV
FORMULA: C22H26N2O5
SMILES: COC(=O)[C@]1(O)C[C@@]23CCCN4CC[C@@]5(c6ccc7c(c6N[C@]15CC2)OCO7)[C@@H]43
INCHI: InChI=1S/C22H26N2O5/c1-27-18(25)21(26)11-19-5-2-9-24-10-8-20(17(19)24)13-3-4-14-16(29-12-28-14)15(13)23-22(20,21)7-6-19/h3-4,17,23,26H,2,5-12H2,1H3/t17-,19+,20+,21+,22-/m0/s1
INCHIKEY: JVIKUDVTJCANPX-NBYDKTAJSA-N
RETENTIONTIME: 3.614400
COMMENT: dataset=RIKEN_MONA; source_file=external_data/raw_libraries/RIKEN_MONA.xlsx; source_row=13; RT_sec=216.863999999999
Num Peaks: 10
174.053280 0.700000
222.093640 1.200000
241.097870 3.400000
269.129180 4.600000
270.128630 0.700000
339.170750 2.400000
340.172670 1.000000
399.138550 1.400000
399.191160 100.000000
399.249300 1.900000

NAME: 12-Cytisineacetamide
SCANNUMBER: RIKEN_MONA_14
PRECURSORMZ: 248.139353
PRECURSORTYPE: [M+H]+
IONMODE: Positive
SPECTRUMTYPE: MS2
COLLISIONENERGY: 10 eV
FORMULA: C13H17N3O2
SMILES: N=C(O)CN1C[C@@H]2C[C@H](C1)Cn1c2cccc1=O
INCHI: InChI=1S/C13H17N3O2/c14-12(17)8-15-5-9-4-10(7-15)11-2-1-3-13(18)16(11)6-9/h1-3,9-10H,4-8H2,(H2,14,17)/t9-,10+/m1/s1
INCHIKEY: MRVHCCZFXHOQOT-ZJUUUORDSA-N
RETENTIONTIME: 2.178650
COMMENT: dataset=RIKEN_MONA; source_file=external_data/raw_libraries/RIKEN_MONA.xlsx; source_row=14; RT_sec=130.719
Num Peaks: 9
73.079370 0.700000
101.072410 8.500000
102.076000 1.100000
146.060070 0.600000
160.075030 2.600000
203.118590 24.800000
204.122940 3.300000
248.139800 100.000000
248.184390 1.400000

NAME: 14,15-Dehydro-16-epi-vincamine
SCANNUMBER: RIKEN_MONA_15
PRECURSORMZ: 353.185969
PRECURSORTYPE: [M+H]+
IONMODE: Positive
SPECTRUMTYPE: MS2
COLLISIONENERGY: 10 eV
FORMULA: C21H24N2O3
SMILES: CC[C@]12C=CCN3CCc4c(n(c5ccccc45)[C@](O)(C(=O)OC)C1)[C@@H]32
INCHI: InChI=1S/C21H24N2O3/c1-3-20-10-6-11-22-12-9-15-14-7-4-5-8-16(14)23(17(15)18(20)22)21(25,13-20)19(24)26-2/h4-8,10,18,25H,3,9,11-13H2,1-2H3/t18-,20+,21-/m1/s1
INCHIKEY: BQGJXFQCMYJENQ-HLAWJBBLSA-N
RETENTIONTIME: 4.255667
COMMENT: dataset=RIKEN_MONA; source_file=external_data/raw_libraries/RIKEN_MONA.xlsx; source_row=15; RT_sec=255.340019999999
Num Peaks: 41
130.067180 0.500000
144.080520 19.400000
145.083800 2.400000
150.089290 0.700000
167.075290 0.500000
168.082120 2.100000
171.091320 3.100000
180.079470 0.600000
181.088700 0.600000
182.100340 0.500000
193.089370 0.700000
194.099110 0.500000
208.104140 0.800000
208.115710 0.800000
210.098080 0.500000
210.114110 0.800000
222.123960 1.100000
222.133040 1.000000
223.129880 0.600000
228.102840 0.900000
246.127750 0.900000
247.135150 1.200000
252.099200 1.000000
252.112790 0.700000
264.133150 0.600000
264.143490 0.700000
268.133580 1.100000
270.108030 1.000000
270.120030 0.800000
277.108520 1.400000
280.131990 0.700000
293.168730 1.800000
298.145230 0.900000
306.148410 4.200000
324.146820 0.600000
324.158110 0.700000
335.175690 4.900000
336.181640 0.900000
353.129120 0.600000
353.187530 100.000000
353.242490 2.700000

NAME: 19S-Methoxytubotaiwine
SCANNUMBER: RIKEN_MONA_16
PRECURSORMZ: 355.201619
PRECURSORTYPE: [M+H]+
IONMODE: Positive
SPECTRUMTYPE: MS2
COLLISIONENERGY: 10 eV
FORMULA: C21H26N2O3
SMILES: COC(=O)C1=C2Nc3ccccc3[C@]23CCN2CC[C@H]1[C@@H]([C@@H](C)OC)[C@@H]23
INCHI: InChI=1S/C21H26N2O3/c1-12(25-2)16-13-8-10-23-11-9-21(19(16)23)14-6-4-5-7-15(14)22-18(21)17(13)20(24)26-3/h4-7,12-13,16,19,22H,8-11H2,1-3H3/t12-,13+,16-,19-,21-/m1/s1
INCHIKEY: LTOOPESWVADEAE-BTRZTINNSA-N
RETENTIONTIME: 4.554600
COMMENT: dataset=RIKEN_MONA; source_file=external_data/raw_libraries/RIKEN_MONA.xlsx; source_row=16; RT_sec=273.276
Num Peaks: 32
168.080410 1.300000
180.080920 0.600000
193.085310 0.500000
193.092190 0.500000
194.095090 2.600000
195.101060 0.900000
206.094620 0.600000
208.113330 2.700000
218.101610 0.700000
220.075410 1.600000
220.114640 1.100000
221.087010 0.600000
221.114320 0.500000
222.090620 1.200000
234.091290 0.700000
234.126460 0.800000
236.104050 0.700000
236.114560 0.500000
237.135790 0.600000
246.091660 5.000000
247.093730 1.100000
248.108090 1.700000
248.117050 0.600000
252.102280 0.500000
263.115260 0.900000
323.175080 82.800000
323.226720 1.800000
324.178470 19.400000
325.170470 0.900000
325.182950 2.200000
355.202030 100.000000
355.256530 2.900000

NAME: 2',6'-Dihydroxy-4-methoxychalcone-4'-O-neohesperid
SCANNUMBER: RIKEN_MONA_17
PRECURSORMZ: 595.202132
PRECURSORTYPE: [M+H]+
IONMODE: Positive
SPECTRUMTYPE: MS2
COLLISIONENERGY: 10 eV
FORMULA: C28H34O14
SMILES: COc1ccc(/C=C/C(=O)c2c(O)cc(O[C@@H]3OC(CO)[C@@H](O)[C@@H](O)C3O[C@@H]3OC(C)[C@H](O)[C@H](O)C3O)cc2O)cc1
INCHI: InChI=1S/C28H34O14/c1-12-21(33)23(35)25(37)27(39-12)42-26-24(36)22(34)19(11-29)41-28(26)40-15-9-17(31)20(18(32)10-15)16(30)8-5-13-3-6-14(38-2)7-4-13/h3-10,12,19,21-29,31-37H,11H2,1-2H3/b8-5+/t12?,19?,21-,22+,23-,24+,25?,26?,27-,28+/m0/s1
INCHIKEY: HWRDCYOHJBCWGW-SMJLESKMSA-N
RETENTIONTIME: 5.415333
COMMENT: dataset=RIKEN_MONA; source_file=external_data/raw_libraries/RIKEN_MONA.xlsx; source_row=17; RT_sec=324.91998
Num Peaks: 97
71.051440 2.500000
75.043660 1.100000
81.364780 0.700000
85.026720 4.200000
85.032930 1.500000
123.787750 0.900000
129.053450 11.900000
130.391780 0.700000
147.058650 1.200000
151.100520 0.900000
153.013960 10.600000
153.025890 6.400000
154.020200 3.800000
161.056630 2.200000
162.064320 1.000000
177.026460 0.700000
179.028500 2.800000
191.023350 0.800000
195.027770 6.200000
196.028850 1.200000
207.029450 0.900000
217.150860 0.900000
219.025310 2.500000
219.041110 0.800000
245.047030 1.200000
246.040220 1.300000
261.009370 1.100000
261.044430 0.900000
262.045290 0.900000
263.049070 3.400000
263.064090 0.800000
264.070010 1.000000
281.065670 1.500000
287.046330 0.900000
287.058990 0.700000
287.090880 100.000000
288.099790 19.600000
288.121120 0.900000
289.082210 1.400000
289.100100 2.500000
290.101560 1.500000
297.047850 0.900000
297.062990 2.100000
299.063020 0.700000
300.070400 1.200000
312.103850 1.900000
329.075500 1.300000
329.099550 6.600000
329.117100 1.800000
329.856690 0.800000
330.107970 1.700000
353.090090 0.900000
353.107760 2.800000
365.108180 1.000000
371.139040 2.000000
372.080840 1.200000
379.106230 1.300000
395.102390 1.500000
397.106320 1.000000
397.124240 6.400000
397.149230 1.100000
397.178920 1.100000
398.128230 3.200000
400.133150 0.800000
407.106510 1.000000
413.124180 3.200000
415.135440 4.700000
415.151920 3.700000
416.122920 0.900000
416.142790 0.900000
427.142180 2.100000
431.126130 2.200000
431.142210 3.900000
432.148470 1.300000
433.110200 0.800000
433.148560 20.600000
433.910920 0.700000
434.143190 4.100000
434.162170 1.000000
435.165340 0.700000
444.131990 2.700000
449.112400 1.700000
449.148380 18.200000
450.135710 3.200000
453.061520 1.100000
453.783020 0.900000
473.159390 2.400000
475.169530 0.900000
476.117800 1.100000
541.146360 1.200000
541.177550 2.500000
545.123470 0.800000
559.174380 1.100000
559.201720 0.900000
577.198550 2.500000
595.121090 0.800000
595.208560 19.200000

NAME: 2'-Hydroxyflavanone
SCANNUMBER: RIKEN_MONA_18
PRECURSORMZ: 241.085921
PRECURSORTYPE: [M+H]+
IONMODE: Positive
SPECTRUMTYPE: MS2
COLLISIONENERGY: 10 eV
FORMULA: C15H12O3
SMILES: O=C1CC(c2ccccc2O)Oc2ccccc21
INCHI: InChI=1S/C15H12O3/c16-12-7-3-1-5-10(12)15-9-13(17)11-6-2-4-8-14(11)18-15/h1-8,15-16H,9H2
INCHIKEY: KZKWCKFDCPVDFJ-UHFFFAOYSA-N
RETENTIONTIME: 7.450500
COMMENT: dataset=RIKEN_MONA; source_file=external_data/raw_libraries/RIKEN_MONA.xlsx; source_row=18; RT_sec=447.03
Num Peaks: 28
93.031550 0.900000
93.036740 1.100000
120.991070 0.500000
121.006090 0.500000
121.027210 100.000000
122.025470 3.800000
122.032010 6.600000
123.022140 0.500000
123.031070 0.800000
123.038510 1.400000
123.042610 0.500000
135.851680 0.600000
147.047990 0.700000
148.035250 0.600000
181.067920 0.700000
198.062990 0.700000
199.068590 2.000000
199.078550 2.800000
200.076660 1.300000
200.953250 0.800000
223.055940 0.700000
223.076490 5.200000
224.086580 1.300000
226.063540 1.000000
240.982130 0.600000
241.045880 0.800000
241.075010 9.200000
241.087400 9.500000

NAME: 2-Methoxycinnamic acid
SCANNUMBER: RIKEN_MONA_19
PRECURSORMZ: 177.055718
PRECURSORTYPE: [M-H]-
IONMODE: Negative
SPECTRUMTYPE: MS2
COLLISIONENERGY: 10 eV
FORMULA: C10H10O3
SMILES: COc1ccccc1C=CC(=O)O
INCHI: InChI=1S/C10H10O3/c1-13-9-5-3-2-4-8(9)6-7-10(11)12/h2-7H,1H3,(H,11,12)
INCHIKEY: FEGVSPGUHMGGBO-UHFFFAOYSA-N
RETENTIONTIME: 6.115250
COMMENT: dataset=RIKEN_MONA; source_file=external_data/raw_libraries/RIKEN_MONA.xlsx; source_row=19; RT_sec=366.914999999999
Num Peaks: 4
107.046370 23.200000
131.048430 18.400000
133.063190 17.600000
177.053340 100.000000

NAME: 2-Propenyl glucosinolate
SCANNUMBER: RIKEN_MONA_20
PRECURSORMZ: 358.027197
PRECURSORTYPE: [M-H]-
IONMODE: Negative
SPECTRUMTYPE: MS2
COLLISIONENERGY: 10 eV
FORMULA: C10H17NO9S2
SMILES: C=CCC(=NOS(=O)(=O)O)SC1OC(CO)C(O)C(O)C1O
INCHI: InChI=1S/C10H17NO9S2/c1-2-3-6(11-20-22(16,17)18)21-10-9(15)8(14)7(13)5(4-12)19-10/h2,5,7-10,12-15H,1,3-4H2,(H,16,17,18)
INCHIKEY: PHZOWSSBXJXFOR-UHFFFAOYSA-N
RETENTIONTIME: 1.767950
COMMENT: dataset=RIKEN_MONA; source_file=external_data/raw_libraries/RIKEN_MONA.xlsx; source_row=20; RT_sec=106.077
Num Peaks: 39
74.990710 11.300000
76.988240 1.200000
80.967260 1.700000
81.952840 2.200000
82.963040 1.200000
85.025790 1.200000
89.021210 1.300000
95.951000 26.300000
96.947650 1.000000
96.959350 50.300000
98.955490 1.000000
101.027370 1.400000
102.985900 0.900000
104.998220 1.400000
105.957740 1.100000
116.017810 10.400000
119.039860 1.800000
125.004750 1.400000
128.933500 1.100000
131.033040 1.400000
143.036240 1.300000
147.538410 0.900000
161.987810 3.100000
164.970170 1.600000
179.994610 1.300000
183.896130 1.400000
184.037020 0.900000
189.177600 2.100000
195.035370 7.200000
197.022260 1.200000
227.019930 2.300000
241.013150 1.500000
242.001220 1.000000
259.004430 2.600000
259.015720 10.800000
260.015170 1.700000
278.074800 1.000000
292.797490 1.000000
358.026700 100.000000

NAME: 3',5'-Dimethoxy-4'-hydroxyacetophenone
SCANNUMBER: RIKEN_MONA_21
PRECURSORMZ: 197.080835
PRECURSORTYPE: [M+H]+
IONMODE: Positive
SPECTRUMTYPE: MS2
COLLISIONENERGY: 10 eV
FORMULA: C10H12O4
SMILES: COc1cc(C(C)=O)cc(OC)c1O
INCHI: InChI=1S/C10H12O4/c1-6(11)7-4-8(13-2)10(12)9(5-7)14-3/h4-5,12H,1-3H3
INCHIKEY: OJOBTAOGJIWAGB-UHFFFAOYSA-N
RETENTIONTIME: 4.313133
COMMENT: dataset=RIKEN_MONA; source_file=external_data/raw_libraries/RIKEN_MONA.xlsx; source_row=21; RT_sec=258.78798
Num Peaks: 22
91.057380 1.000000
93.581830 0.800000
97.037640 0.800000
108.017270 0.700000
109.065380 1.300000
123.044880 3.900000
125.022560 6.400000
138.032100 1.300000
140.046340 28.500000
141.055890 0.900000
153.050220 2.100000
155.069980 72.100000
155.109470 1.200000
156.072250 7.500000
156.968990 1.600000
158.956190 1.100000
181.050220 6.000000
182.051540 1.900000
193.320140 0.900000
196.072200 1.700000
196.511380 0.700000
197.080370 100.000000

NAME: 3,4,5-Trihydroxystilbene
SCANNUMBER: RIKEN_MONA_22
PRECURSORMZ: 229.085921
PRECURSORTYPE: [M+H]+
IONMODE: Positive
SPECTRUMTYPE: MS2
COLLISIONENERGY: 10 eV
FORMULA: C14H12O3
SMILES: Oc1ccc(/C=C/c2cc(O)cc(O)c2)cc1
INCHI: InChI=1S/C14H12O3/c15-12-5-3-10(4-6-12)1-2-11-7-13(16)9-14(17)8-11/h1-9,15-17H/b2-1+
INCHIKEY: LUKBXSAWLPMMSZ-OWOJBTEDSA-N
RETENTIONTIME: 5.004367
COMMENT: dataset=RIKEN_MONA; source_file=external_data/raw_libraries/RIKEN_MONA.xlsx; source_row=22; RT_sec=300.26202
Num Peaks: 84
79.050700 3.300000
91.053960 6.200000
91.060250 3.800000
107.036330 2.100000
107.045540 11.000000
107.051140 17.200000
108.058120 1.200000
108.605420 0.900000
109.026880 0.900000
110.036580 1.700000
111.042820 1.800000
115.028930 1.100000
116.052920 2.700000
119.044670 4.400000
119.050550 5.200000
119.057540 1.500000
120.046580 1.100000
120.053490 3.800000
120.060420 3.500000
120.339840 0.800000
121.034820 1.200000
121.067770 1.000000
123.040090 0.800000
123.047340 1.300000
129.050000 1.000000
131.055820 1.400000
134.968780 0.900000
135.012050 0.800000
135.043660 29.300000
136.048280 7.000000
141.060420 0.800000
141.069470 0.800000
142.070070 1.500000
144.049990 0.800000
145.065990 0.800000
152.068920 1.100000
153.057070 1.400000
153.074910 1.100000
156.064060 1.400000
157.060040 0.800000
158.066800 0.800000
159.079610 1.100000
164.055070 1.800000
164.061690 4.400000
165.052550 1.200000
165.063130 4.000000
165.069890 3.300000
165.078640 1.100000
166.067000 2.500000
172.070800 1.800000
172.801620 1.100000
174.100680 0.800000
181.053300 1.200000
181.061600 1.100000
181.072910 0.900000
182.065430 2.800000
183.047040 0.900000
183.077500 7.200000
184.081010 4.300000
184.094590 1.500000
185.066590 1.900000
186.062730 0.800000
186.075640 1.100000
186.951140 1.300000
193.066740 3.300000
197.050250 1.100000
199.068050 3.100000
201.006500 1.300000
201.079650 1.300000
210.051470 1.500000
210.067210 1.100000
211.070220 2.800000
211.077480 2.100000
213.957110 1.000000
227.063510 1.000000
227.070130 1.800000
228.060180 0.900000
228.082920 9.100000
228.482390 0.800000
228.589070 1.000000
228.823580 1.100000
228.991410 1.000000
229.010530 1.100000
229.087220 100.000000

NAME: 3,4-Dimethoxycinnamic acid
SCANNUMBER: RIKEN_MONA_23
PRECURSORMZ: 209.080835
PRECURSORTYPE: [M+H]+
IONMODE: Positive
SPECTRUMTYPE: MS2
COLLISIONENERGY: 10 eV
FORMULA: C11H12O4
SMILES: COc1ccc(/C=C/C(=O)O)cc1OC
INCHI: InChI=1S/C11H12O4/c1-14-9-5-3-8(4-6-11(12)13)7-10(9)15-2/h3-7H,1-2H3,(H,12,13)/b6-4+
INCHIKEY: HJBWJAPEBGSQPR-GQCTYLIASA-N
RETENTIONTIME: 5.178967
COMMENT: dataset=RIKEN_MONA; source_file=external_data/raw_libraries/RIKEN_MONA.xlsx; source_row=23; RT_sec=310.73802
Num Peaks: 37
91.047870 3.000000
91.053500 11.300000
95.047150 2.800000
95.053690 4.000000
104.059830 2.600000
105.031550 2.500000
105.058040 3.100000
117.027960 4.000000
119.046030 10.400000
119.700110 3.000000
120.053540 3.000000
123.032520 1.600000
132.055940 8.200000
133.018620 4.700000
133.028310 8.400000
133.060820 3.000000
147.037730 2.400000
148.048020 2.200000
148.055420 3.500000
149.053150 1.400000
149.063140 2.700000
160.067630 1.600000
163.065060 1.700000
163.075300 11.900000
167.055480 2.300000
176.019900 3.400000
176.043670 5.100000
191.068470 100.000000
192.071150 10.000000
192.756210 1.400000
193.045390 1.500000
193.068650 2.500000
193.085770 1.700000
195.997770 1.700000
208.059650 1.600000
208.074680 6.500000
209.077820 7.200000

NAME: 3,5-Dimethoxycinnamic acid
SCANNUMBER: RIKEN_MONA_24
PRECURSORMZ: 209.080835
PRECURSORTYPE: [M+H]+
IONMODE: Positive
SPECTRUMTYPE: MS2
COLLISIONENERGY: 10 eV
FORMULA: C11H12O4
SMILES: COc1cc(/C=C/C(=O)O)cc(OC)c1
INCHI: InChI=1S/C11H12O4/c1-14-9-5-8(3-4-11(12)13)6-10(7-9)15-2/h3-7H,1-2H3,(H,12,13)/b4-3+
INCHIKEY: VLSRUFWCGBMYDJ-ONEGZZNKSA-N
RETENTIONTIME: 6.255483
COMMENT: dataset=RIKEN_MONA; source_file=external_data/raw_libraries/RIKEN_MONA.xlsx; source_row=24; RT_sec=375.32898
Num Peaks: 50
89.022440 1.500000
90.042300 1.700000
91.041180 1.100000
91.051690 1.700000
91.057990 1.500000
97.206840 1.400000
105.030480 2.200000
105.059780 1.200000
105.066530 1.100000
118.040450 1.900000
119.053100 3.500000
120.056960 8.200000
121.056540 1.100000
133.031300 5.500000
133.039020 1.600000
133.065860 2.900000
135.077320 1.900000
137.059110 1.500000
139.070470 1.500000
139.094440 1.200000
147.043370 1.700000
148.044540 13.800000
148.052840 25.500000
148.065050 2.700000
149.052460 1.600000
149.062260 2.000000
150.069030 1.400000
161.059010 1.600000
163.054950 1.100000
163.067470 4.100000
163.076540 10.500000
163.090070 4.300000
164.079710 1.600000
165.045870 4.600000
165.092270 1.200000
167.069850 6.900000
176.033040 1.200000
176.049410 3.600000
177.055830 1.800000
191.046250 1.700000
191.071060 100.000000
191.089280 3.400000
192.071720 9.700000
193.074840 4.800000
194.071790 2.000000
207.060760 2.700000
207.069230 1.400000
208.070270 1.100000
208.088520 1.500000
209.077610 42.600000

NAME: 3-Hydroxycinnamic acid
SCANNUMBER: RIKEN_MONA_25
PRECURSORMZ: 165.054621
PRECURSORTYPE: [M+H]+
IONMODE: Positive
SPECTRUMTYPE: MS2
COLLISIONENERGY: 10 eV
FORMULA: C9H8O3
SMILES: O=C(O)/C=C/c1cccc(O)c1
INCHI: InChI=1S/C9H8O3/c10-8-3-1-2-7(6-8)4-5-9(11)12/h1-6,10H,(H,11,12)/b5-4+
INCHIKEY: KKSDGJDHHZEWEP-SNAWJCMRSA-N
RETENTIONTIME: 4.415067
COMMENT: dataset=RIKEN_MONA; source_file=external_data/raw_libraries/RIKEN_MONA.xlsx; source_row=25; RT_sec=264.90402
Num Peaks: 6
119.043840 11.000000
125.960280 9.900000
147.026000 15.400000
147.042050 100.000000
147.052900 51.100000
148.052380 13.700000

NAME: 3-Methoxycinnamic acid
SCANNUMBER: RIKEN_MONA_26
PRECURSORMZ: 179.070271
PRECURSORTYPE: [M+H]+
IONMODE: Positive
SPECTRUMTYPE: MS2
COLLISIONENERGY: 10 eV
FORMULA: C10H10O3
SMILES: COc1cccc(/C=C/C(=O)O)c1
INCHI: InChI=1S/C10H10O3/c1-13-9-4-2-3-8(7-9)5-6-10(11)12/h2-7H,1H3,(H,11,12)/b6-5+
INCHIKEY: LZPNXAULYJPXEH-AATRIKPKSA-N
RETENTIONTIME: 6.027566
COMMENT: dataset=RIKEN_MONA; source_file=external_data/raw_libraries/RIKEN_MONA.xlsx; source_row=26; RT_sec=361.65396
Num Peaks: 7
92.056630 5.900000
99.969960 6.500000
131.542680 6.200000
133.064830 30.200000
134.887820 7.200000
161.058110 100.000000
162.066730 5.300000

NAME: 4-Aminoantipyrin
SCANNUMBER: RIKEN_MONA_27
PRECURSORMZ: 204.113138
PRECURSORTYPE: [M+H]+
IONMODE: Positive
SPECTRUMTYPE: MS2
COLLISIONENERGY: 10 eV
FORMULA: C11H13N3O
SMILES: Cc1c(N)c(=O)n(-c2ccccc2)n1C
INCHI: InChI=1S/C11H13N3O/c1-8-10(12)11(15)14(13(8)2)9-6-4-3-5-7-9/h3-7H,12H2,1-2H3
INCHIKEY: RLFWWDJHLFCNIJ-UHFFFAOYSA-N
RETENTIONTIME: 2.763233
COMMENT: dataset=RIKEN_MONA; source_file=external_data/raw_libraries/RIKEN_MONA.xlsx; source_row=27; RT_sec=165.79398
Num Peaks: 39
56.047200 0.900000
56.053160 2.300000
83.060450 6.800000
84.067840 0.700000
85.031090 0.900000
85.077840 6.700000
94.058140 1.300000
94.066460 10.800000
104.045410 2.000000
111.055020 2.900000
111.064200 1.100000
118.061720 1.200000
128.052460 3.700000
130.061660 1.100000
132.079710 2.500000
136.495250 0.600000
145.076610 4.100000
146.055420 1.400000
146.064820 2.900000
146.250380 0.600000
151.511780 1.100000
157.054110 1.000000
158.061610 3.000000
159.086990 10.600000
159.095890 8.500000
160.090470 2.400000
169.084660 1.000000
171.052830 0.600000
173.072020 3.400000
175.073360 0.600000
177.102940 0.600000
187.082020 7.800000
187.090900 7.300000
188.096690 0.600000
189.090190 3.100000
191.094590 0.600000
204.112590 100.000000
204.149720 1.100000
204.162690 0.700000

NAME: 4-Deoxyphloridzin
SCANNUMBER: RIKEN_MONA_28
PRECURSORMZ: 419.134756
PRECURSORTYPE: [M-H]-
IONMODE: Negative
SPECTRUMTYPE: MS2
COLLISIONENERGY: 10 eV
FORMULA: C21H24O9
SMILES: O=C(CCc1ccccc1)c1c(O)cc(O)cc1OC1OC(CO)C(O)C(O)C1O
INCHI: InChI=1S/C21H24O9/c22-10-16-18(26)19(27)20(28)21(30-16)29-15-9-12(23)8-14(25)17(15)13(24)7-6-11-4-2-1-3-5-11/h1-5,8-9,16,18-23,25-28H,6-7,10H2
INCHIKEY: NLGUKXQDDTZCDG-UHFFFAOYSA-N
RETENTIONTIME: 4.846050
COMMENT: dataset=RIKEN_MONA; source_file=external_data/raw_libraries/RIKEN_MONA.xlsx; source_row=28; RT_sec=290.763
Num Peaks: 16
83.013400 0.500000
93.032470 1.600000
135.004960 2.900000
135.015230 0.600000
136.010420 0.900000
151.038880 58.400000
152.037290 2.300000
152.043980 4.100000
163.039520 12.100000
164.038930 1.600000
239.073120 1.800000
257.080440 100.000000
258.083500 16.700000
259.084230 2.300000
419.133420 2.900000
419.153080 0.500000

NAME: 4-Hydroxyquinoline
SCANNUMBER: RIKEN_MONA_29
PRECURSORMZ: 146.060040
PRECURSORTYPE: [M+H]+
IONMODE: Positive
SPECTRUMTYPE: MS2
COLLISIONENERGY: 10 eV
FORMULA: C9H7NO
SMILES: O=c1cc[nH]c2ccccc12
INCHI: InChI=1S/C9H7NO/c11-9-5-6-10-8-4-2-1-3-7(8)9/h1-6H,(H,10,11)
INCHIKEY: PMZDQRJGMBOQBF-UHFFFAOYSA-N
RETENTIONTIME: 2.932050
COMMENT: dataset=RIKEN_MONA; source_file=external_data/raw_libraries/RIKEN_MONA.xlsx; source_row=29; RT_sec=175.923
Num Peaks: 7
77.041180 0.700000
91.056510 0.500000
104.051730 1.300000
118.066670 0.700000
146.033950 0.500000
146.060940 100.000000
146.095090 1.700000

NAME: 4-Methoxycinnamic acid
SCANNUMBER: RIKEN_MONA_30
PRECURSORMZ: 177.055718
PRECURSORTYPE: [M-H]-
IONMODE: Negative
SPECTRUMTYPE: MS2
COLLISIONENERGY: 10 eV
FORMULA: C10H10O3
SMILES: COc1ccc(C=CC(=O)O)cc1
INCHI: InChI=1S/C10H10O3/c1-13-9-5-2-8(3-6-9)4-7-10(11)12/h2-7H,1H3,(H,11,12)
INCHIKEY: AFDXODALSZRGIH-UHFFFAOYSA-N
RETENTIONTIME: 5.855383
COMMENT: dataset=RIKEN_MONA; source_file=external_data/raw_libraries/RIKEN_MONA.xlsx; source_row=30; RT_sec=351.32298
Num Peaks: 9
117.039350 9.400000
118.043370 10.100000
119.042290 22.500000
121.401560 9.400000
133.064760 100.000000
134.065950 10.100000
135.043060 9.400000
177.057480 32.600000
177.064480 8.600000

NAME: 4-Methylthiobutyl glucosinolate
SCANNUMBER: RIKEN_MONA_31
PRECURSORMZ: 420.046218
PRECURSORTYPE: [M-H]-
IONMODE: Negative
SPECTRUMTYPE: MS2
COLLISIONENERGY: 10 eV
FORMULA: C12H23NO9S3
SMILES: CSCCCCC(=NOS(=O)(=O)O)SC1OC(CO)C(O)C(O)C1O
INCHI: InChI=1S/C12H23NO9S3/c1-23-5-3-2-4-8(13-22-25(18,19)20)24-12-11(17)10(16)9(15)7(6-14)21-12/h7,9-12,14-17H,2-6H2,1H3,(H,18,19,20)
INCHIKEY: GKUMMDFLKGFCKH-UHFFFAOYSA-N
RETENTIONTIME: 2.873900
COMMENT: dataset=RIKEN_MONA; source_file=external_data/raw_libraries/RIKEN_MONA.xlsx; source_row=31; RT_sec=172.434
Num Peaks: 29
74.989730 7.700000
76.985870 0.700000
79.953930 1.200000
79.959120 1.500000
85.027240 0.900000
95.951560 18.200000
96.959540 56.100000
98.954730 2.000000
101.023570 1.100000
119.031700 0.800000
127.921400 1.100000
128.933210 0.600000
138.971190 2.100000
145.048110 0.700000
178.036190 4.900000
195.032140 2.800000
196.991790 0.700000
197.024170 0.500000
198.990600 0.600000
226.982640 0.700000
228.999050 0.600000
241.003520 3.600000
242.011380 1.100000
259.013000 5.900000
261.019900 0.600000
274.985410 2.200000
274.997470 1.500000
340.093230 0.600000
420.045350 100.000000

NAME: 5(S)-5-carboxystrictosidine
SCANNUMBER: RIKEN_MONA_32
PRECURSORMZ: 575.223536
PRECURSORTYPE: [M+H]+
IONMODE: Positive
SPECTRUMTYPE: MS2
COLLISIONENERGY: 10 eV
FORMULA: C28H34N2O11
SMILES: C=C[C@H]1[C@H](O[C@@H]2O[C@H](CO)[C@@H](O)[C@H](O)[C@H]2O)OC=C(C(=O)OC)[C@H]1C[C@@H]1N[C@H](C(=O)O)Cc2c1[nH]c1ccccc21
INCHI: InChI=1S/C28H34N2O11/c1-3-12-14(8-18-21-15(9-19(29-18)25(35)36)13-6-4-5-7-17(13)30-21)16(26(37)38-2)11-39-27(12)41-28-24(34)23(33)22(32)20(10-31)40-28/h3-7,11-12,14,18-20,22-24,27-34H,1,8-10H2,2H3,(H,35,36)/t12-,14+,18+,19+,20-,22-,23+,24-,27+,28+/m1/s1
INCHIKEY: LHKZIVMTXZLOTP-RMKGEEGASA-N
RETENTIONTIME: 4.132550
COMMENT: dataset=RIKEN_MONA; source_file=external_data/raw_libraries/RIKEN_MONA.xlsx; source_row=32; RT_sec=247.953
Num Peaks: 69
130.065280 1.500000
139.039490 0.600000
144.080640 3.600000
146.061870 1.400000
158.096600 0.900000
165.053700 4.100000
168.080700 2.200000
169.078600 1.900000
188.071010 10.600000
189.074710 1.500000
200.068510 1.300000
201.077850 0.500000
210.088610 0.500000
214.088410 2.000000
215.083390 2.000000
217.095840 1.000000
230.099040 0.500000
231.111110 1.400000
238.087050 2.400000
239.093320 1.000000
248.068510 1.100000
250.079730 0.800000
265.097470 0.900000
266.097470 0.600000
270.112580 0.800000
272.104460 0.900000
280.136960 0.600000
290.111790 0.800000
290.122590 0.700000
293.095920 0.700000
293.129790 1.900000
295.085780 0.900000
308.123990 1.500000
311.104430 3.600000
312.106600 0.800000
318.099090 0.600000
318.111820 0.700000
322.142400 1.900000
325.117740 0.600000
326.116550 0.800000
327.112150 1.500000
328.106750 0.600000
335.140110 3.500000
340.155210 2.400000
341.149720 0.600000
341.164310 0.600000
343.129270 5.900000
344.128450 1.400000
346.110230 1.400000
363.132600 1.700000
364.117650 1.100000
364.132970 1.000000
378.136570 2.700000
378.150050 0.800000
379.139770 0.600000
381.147220 4.100000
382.151730 0.900000
395.161130 7.600000
396.147640 11.000000
397.146760 3.000000
398.156430 0.600000
413.170170 19.100000
414.174560 5.800000
415.169650 0.700000
558.201420 4.300000
559.205140 1.400000
575.146790 0.900000
575.223630 100.000000
575.293700 1.700000

NAME: 6,7-Dihydroxycoumarin
SCANNUMBER: RIKEN_MONA_33
PRECURSORMZ: 179.033885
PRECURSORTYPE: [M+H]+
IONMODE: Positive
SPECTRUMTYPE: MS2
COLLISIONENERGY: 10 eV
FORMULA: C9H6O4
SMILES: O=c1ccc2cc(O)c(O)cc2o1
INCHI: InChI=1S/C9H6O4/c10-6-3-5-1-2-9(12)13-8(5)4-7(6)11/h1-4,10-11H
INCHIKEY: ILEDWLMCKZNDJK-UHFFFAOYSA-N
RETENTIONTIME: 2.871400
COMMENT: dataset=RIKEN_MONA; source_file=external_data/raw_libraries/RIKEN_MONA.xlsx; source_row=33; RT_sec=172.284
Num Peaks: 19
70.000970 0.700000
77.031520 0.800000
77.040600 1.900000
105.034610 3.500000
117.031300 2.600000
123.043210 24.700000
123.526050 0.600000
133.029210 14.100000
135.043700 1.700000
136.723660 0.500000
137.499420 0.800000
150.039280 0.700000
150.970630 0.900000
151.031280 3.700000
151.041140 6.700000
178.031300 0.700000
178.042530 0.800000
179.003400 2.600000
179.033970 100.000000

NAME: 6,7-Dihydroxycoumarin-6-glucoside
SCANNUMBER: RIKEN_MONA_34
PRECURSORMZ: 339.072156
PRECURSORTYPE: [M-H]-
IONMODE: Negative
SPECTRUMTYPE: MS2
COLLISIONENERGY: 10 eV
FORMULA: C15H16O9
SMILES: O=c1ccc2cc(OC3OC(CO)C(O)C(O)C3O)c(O)cc2o1
INCHI: InChI=1S/C15H16O9/c16-5-10-12(19)13(20)14(21)15(24-10)23-9-3-6-1-2-11(18)22-8(6)4-7(9)17/h1-4,10,12-17,19-21H,5H2
INCHIKEY: XHCADAYNFIFUHF-UHFFFAOYSA-N
RETENTIONTIME: 2.871783
COMMENT: dataset=RIKEN_MONA; source_file=external_data/raw_libraries/RIKEN_MONA.xlsx; source_row=34; RT_sec=172.30698
Num Peaks: 10
89.040840 0.500000
105.034140 1.600000
133.028050 6.400000
134.033160 0.800000
148.016820 0.800000
176.010510 1.600000
177.017900 100.000000
178.020870 10.500000
179.025240 2.000000
339.070860 16.900000

NAME: 6-Hydroxyflavanone
SCANNUMBER: RIKEN_MONA_35
PRECURSORMZ: 241.085921
PRECURSORTYPE: [M+H]+
IONMODE: Positive
SPECTRUMTYPE: MS2
COLLISIONENERGY: 10 eV
FORMULA: C15H12O3
SMILES: O=C1CC(c2ccccc2)Oc2ccc(O)cc21
INCHI: InChI=1S/C15H12O3/c16-11-6-7-14-12(8-11)13(17)9-15(18-14)10-4-2-1-3-5-10/h1-8,15-16H,9H2
INCHIKEY: XYHWPQUEOOBIOW-UHFFFAOYSA-N
RETENTIONTIME: 7.174033
COMMENT: dataset=RIKEN_MONA; source_file=external_data/raw_libraries/RIKEN_MONA.xlsx; source_row=35; RT_sec=430.44198
Num Peaks: 59
53.035980 0.500000
81.026310 1.100000
81.034710 3.900000
103.053670 19.400000
104.058500 1.500000
105.067720 0.700000
108.058200 0.600000
109.027980 5.100000
119.046970 0.800000
128.061980 0.600000
129.071960 1.300000
131.048490 43.700000
132.030880 1.000000
132.052260 5.100000
135.047960 1.400000
136.012650 1.000000
137.007030 0.700000
137.022400 60.700000
138.017010 1.200000
138.027600 3.300000
139.031850 0.600000
141.071990 0.500000
147.044330 0.800000
147.051710 0.500000
151.600750 0.500000
152.060610 2.100000
153.066040 0.500000
158.070360 5.500000
159.072510 0.500000
163.039510 5.000000
163.051180 0.500000
164.040080 1.700000
164.050400 0.600000
165.068370 1.600000
166.072460 1.100000
167.081360 1.600000
167.091060 2.500000
168.090010 1.200000
171.080720 0.700000
177.067750 0.500000
178.073470 0.600000
181.064710 0.700000
185.094090 1.600000
193.594250 0.500000
195.081940 8.200000
196.085680 1.100000
199.065090 1.500000
199.074800 5.600000
201.084270 0.800000
206.073040 0.700000
213.089950 2.300000
223.051560 0.500000
223.075650 10.100000
224.079990 2.500000
226.057390 0.800000
239.070590 1.500000
240.076080 0.700000
241.053700 1.100000
241.085570 100.000000

NAME: 6-Methoxy-7-hydroxycoumarin
SCANNUMBER: RIKEN_MONA_36
PRECURSORMZ: 193.049535
PRECURSORTYPE: [M+H]+
IONMODE: Positive
SPECTRUMTYPE: MS2
COLLISIONENERGY: 10 eV
FORMULA: C10H8O4
SMILES: COc1cc2ccc(=O)oc2cc1O
INCHI: InChI=1S/C10H8O4/c1-13-9-4-6-2-3-10(12)14-8(6)5-7(9)11/h2-5,11H,1H3
INCHIKEY: RODXRVNMMDRFIK-UHFFFAOYSA-N
RETENTIONTIME: 4.239666
COMMENT: dataset=RIKEN_MONA; source_file=external_data/raw_libraries/RIKEN_MONA.xlsx; source_row=36; RT_sec=254.379959999999
Num Peaks: 23
77.040050 1.200000
81.033660 0.900000
94.040570 2.200000
105.030430 1.000000
117.040050 0.500000
121.020700 0.500000
122.035030 6.400000
133.027680 21.500000
134.030400 1.800000
137.059250 8.700000
138.064910 0.500000
149.056430 1.100000
149.064970 1.100000
150.028050 2.600000
150.034350 2.400000
161.021380 1.400000
164.047730 0.700000
165.053800 4.000000
178.025530 16.100000
179.031170 1.300000
192.041340 1.700000
193.049220 100.000000
193.089510 1.100000

NAME: 7,8-Dihydroxycoumarin
SCANNUMBER: RIKEN_MONA_37
PRECURSORMZ: 179.033885
PRECURSORTYPE: [M+H]+
IONMODE: Positive
SPECTRUMTYPE: MS2
COLLISIONENERGY: 10 eV
FORMULA: C9H6O4
SMILES: O=c1ccc2ccc(O)c(O)c2o1
INCHI: InChI=1S/C9H6O4/c10-6-3-1-5-2-4-7(11)13-9(5)8(6)12/h1-4,10,12H
INCHIKEY: ATEFPOUAMCWAQS-UHFFFAOYSA-N
RETENTIONTIME: 3.647717
COMMENT: dataset=RIKEN_MONA; source_file=external_data/raw_libraries/RIKEN_MONA.xlsx; source_row=37; RT_sec=218.86302
Num Peaks: 22
77.019870 1.100000
77.038660 2.900000
89.038180 0.900000
94.781660 0.500000
105.024730 0.600000
105.034130 2.600000
117.030740 1.100000
117.036030 0.500000
118.035370 0.600000
122.488910 0.700000
123.043510 6.600000
133.016330 1.100000
133.028460 23.200000
134.030200 1.400000
135.043170 3.100000
136.046080 0.500000
149.956340 0.500000
151.050230 0.600000
161.003800 0.600000
161.019320 3.200000
178.020750 0.600000
179.033310 100.000000

NAME: 7-Hydroxymitragynine
SCANNUMBER: RIKEN_MONA_38
PRECURSORMZ: 415.222749
PRECURSORTYPE: [M+H]+
IONMODE: Positive
SPECTRUMTYPE: MS2
COLLISIONENERGY: 10 eV
FORMULA: C23H30N2O5
SMILES: CC[C@H]1CN2CC[C@@]3(O)C(=Nc4cccc(OC)c43)[C@@H]2C[C@@H]1/C(=C\OC)C(=O)OC
INCHI: InChI=1S/C23H30N2O5/c1-5-14-12-25-10-9-23(27)20-17(7-6-8-19(20)29-3)24-21(23)18(25)11-15(14)16(13-28-2)22(26)30-4/h6-8,13-15,18,27H,5,9-12H2,1-4H3/b16-13+/t14-,15-,18-,23-/m0/s1
INCHIKEY: RYENLSMHLCNXJT-ZHOKILCHSA-N
RETENTIONTIME: 4.260783
COMMENT: dataset=RIKEN_MONA; source_file=external_data/raw_libraries/RIKEN_MONA.xlsx; source_row=38; RT_sec=255.646979999999
Num Peaks: 37
110.097500 2.800000
129.059400 0.700000
145.083890 0.600000
147.068560 0.600000
162.047960 0.900000
162.058070 0.600000
162.092240 1.200000
168.101590 0.500000
173.075740 0.600000
175.061310 3.200000
175.069630 1.000000
176.068500 0.600000
190.086930 27.500000
191.090710 2.500000
191.100920 0.700000
194.122380 0.500000
226.136980 1.700000
226.144840 4.600000
227.112470 1.000000
227.124560 0.600000
227.151930 0.500000
238.145570 4.200000
240.145710 0.500000
240.156970 2.500000
245.130360 0.700000
281.164150 0.900000
299.178860 1.600000
381.182460 2.200000
382.182710 0.900000
383.209930 0.500000
397.199550 1.700000
397.213500 7.300000
398.202210 1.200000
398.219330 1.800000
399.224300 0.800000
415.168090 0.600000
415.223600 100.000000

NAME: 7-Methylsulfenylheptyl isothiocyanate
SCANNUMBER: RIKEN_MONA_39
PRECURSORMZ: 204.087518
PRECURSORTYPE: [M+H]+
IONMODE: Positive
SPECTRUMTYPE: MS2
COLLISIONENERGY: 10 eV
FORMULA: C9H17NS2
SMILES: CSCCCCCCCN=C=S
INCHI: InChI=1S/C9H17NS2/c1-12-8-6-4-2-3-5-7-10-9-11/h2-8H2,1H3
INCHIKEY: LDIRGNDMTOGVRB-UHFFFAOYSA-N
RETENTIONTIME: 9.190450
COMMENT: dataset=RIKEN_MONA; source_file=external_data/raw_libraries/RIKEN_MONA.xlsx; source_row=39; RT_sec=551.427
Num Peaks: 45
55.051660 1.600000
63.008110 2.400000
69.069870 2.900000
70.067540 3.200000
80.046170 2.100000
80.053080 4.300000
81.069060 1.400000
95.080200 1.400000
97.085290 1.700000
97.099380 16.000000
98.894030 2.100000
100.021970 1.400000
108.082610 1.400000
110.097310 3.000000
112.109630 1.500000
114.032970 1.700000
114.050460 2.300000
122.096270 5.000000
123.103120 19.200000
129.077130 1.400000
131.086960 2.900000
131.090620 6.600000
133.539630 2.300000
140.111800 1.300000
145.098790 1.700000
145.105670 6.100000
145.111470 8.900000
146.096410 1.600000
156.084150 100.000000
157.086400 2.100000
158.078170 1.700000
158.086290 4.800000
158.095730 6.700000
177.065200 1.600000
177.081300 1.700000
182.216020 1.400000
202.115020 4.000000
202.129590 4.400000
203.134170 2.300000
203.143710 2.500000
204.072650 3.500000
204.085160 10.500000
204.096220 14.200000
204.151110 1.300000
204.181350 1.700000

NAME: 7-Methylsulfinylheptyl isothiocyanate
SCANNUMBER: RIKEN_MONA_40
PRECURSORMZ: 218.067880
PRECURSORTYPE: [M-H]-
IONMODE: Negative
SPECTRUMTYPE: MS2
COLLISIONENERGY: 10 eV
FORMULA: C9H17NOS2
SMILES: CS(=O)CCCCCCCN=C=S
INCHI: InChI=1S/C9H17NOS2/c1-13(11)8-6-4-2-3-5-7-10-9-12/h2-8H2,1H3
INCHIKEY: OGYHCBGORZWBPH-UHFFFAOYSA-N
RETENTIONTIME: 5.406900
COMMENT: dataset=RIKEN_MONA; source_file=external_data/raw_libraries/RIKEN_MONA.xlsx; source_row=40; RT_sec=324.414
Num Peaks: 3
142.075060 56.100000
156.086590 30.300000
168.089980 100.000000

NAME: 7-O-Methylquercetin-3-O-galactoside-6''-rhamnoside
SCANNUMBER: RIKEN_MONA_41
PRECURSORMZ: 771.234220
PRECURSORTYPE: [M+H]+
IONMODE: Positive
SPECTRUMTYPE: MS2
COLLISIONENERGY: 10 eV
FORMULA: C34H42O20
SMILES: COc1cc(O)c2c(=O)c(OC3OC(COC4OC(C)C(O)C(OC5OC(C)C(O)C(O)C5O)C4O)C(O)C(O)C3O)c(-c3ccc(O)c(O)c3)oc2c1
INCHI: InChI=1S/C34H42O20/c1-10-20(38)24(42)26(44)33(50-10)53-30-21(39)11(2)49-32(28(30)46)48-9-18-22(40)25(43)27(45)34(52-18)54-31-23(41)19-16(37)7-13(47-3)8-17(19)51-29(31)12-4-5-14(35)15(36)6-12/h4-8,10-11,18,20-22,24-28,30,32-40,42-46H,9H2,1-3H3
INCHIKEY: NMGVHLDIHNFGQB-UHFFFAOYSA-N
RETENTIONTIME: 4.787083
COMMENT: dataset=RIKEN_MONA; source_file=external_data/raw_libraries/RIKEN_MONA.xlsx; source_row=41; RT_sec=287.22498
Num Peaks: 30
85.025810 1.100000
113.056610 0.500000
117.055930 1.200000
127.040310 0.800000
129.054810 0.600000
130.052950 0.700000
147.055530 0.700000
147.064150 1.200000
153.048840 0.600000
163.055950 1.200000
163.064730 1.000000
255.082870 1.300000
275.122890 0.600000
317.033330 2.100000
317.065920 100.000000
318.068150 20.000000
319.063960 1.100000
319.074710 2.600000
366.614750 0.500000
384.097750 0.600000
445.115630 0.900000
479.120330 15.700000
480.122590 4.100000
480.139800 1.200000
481.116610 1.000000
609.194760 0.600000
625.161250 0.900000
625.186890 5.400000
626.169310 1.100000
771.237850 32.900000

NAME: 7alpha-Voacangine hydroxyindolenine
SCANNUMBER: RIKEN_MONA_42
PRECURSORMZ: 385.212184
PRECURSORTYPE: [M+H]+
IONMODE: Positive
SPECTRUMTYPE: MS2
COLLISIONENERGY: 10 eV
FORMULA: C22H28N2O4
SMILES: CC[C@@H]1C[C@@H]2CN3CCC4(O)C(=Nc5ccc(OC)cc54)C(C(=O)OC)(C2)C13
INCHI: InChI=1S/C22H28N2O4/c1-4-14-9-13-11-21(20(25)28-3)18(14)24(12-13)8-7-22(26)16-10-15(27-2)5-6-17(16)23-19(21)22/h5-6,10,13-14,18,26H,4,7-9,11-12H2,1-3H3/t13-,14+,18?,21?,22?/m0/s1
INCHIKEY: AVRFPRAAVSCSSZ-GSEWTJHMSA-N
RETENTIONTIME: 4.014633
COMMENT: dataset=RIKEN_MONA; source_file=external_data/raw_libraries/RIKEN_MONA.xlsx; source_row=42; RT_sec=240.877979999999
Num Peaks: 21
121.099330 0.500000
136.075640 0.900000
147.066730 0.600000
150.056900 0.600000
150.126770 3.200000
160.074370 0.600000
162.091220 0.600000
174.090500 0.800000
176.069690 0.800000
178.121860 2.400000
179.120290 0.700000
190.086240 2.900000
196.133380 0.500000
208.129360 0.600000
210.146190 0.800000
229.095180 0.700000
325.192900 1.400000
367.195860 0.700000
385.150730 0.700000
385.211670 100.000000
385.269230 2.600000

NAME: 8-Methylsulfinyloctyl isothiocyanate
SCANNUMBER: RIKEN_MONA_43
PRECURSORMZ: 231.075705
PRECURSORTYPE: [M-2H]-
IONMODE: Negative
SPECTRUMTYPE: MS2
COLLISIONENERGY: 10 eV
FORMULA: C10H19NOS2
SMILES: CS(=O)CCCCCCCCN=C=S
INCHI: InChI=1S/C10H19NOS2/c1-14(12)9-7-5-3-2-4-6-8-11-10-13/h2-9H2,1H3
INCHIKEY: BCRXKWOQVFKZAG-UHFFFAOYSA-N
RETENTIONTIME: 3.564250
COMMENT: dataset=RIKEN_MONA; source_file=external_data/raw_libraries/RIKEN_MONA.xlsx; source_row=43; RT_sec=213.855
Num Peaks: 4
79.957170 21.300000
80.968540 2.600000
229.095440 1.300000
231.068450 100.000000

NAME: 9-Nitro-20(S)-camptothecin
SCANNUMBER: RIKEN_MONA_44
PRECURSORMZ: 394.103362
PRECURSORTYPE: [M+H]+
IONMODE: Positive
SPECTRUMTYPE: MS2
COLLISIONENERGY: 10 eV
FORMULA: C20H15N3O6
SMILES: CC[C@@]1(O)C(=O)OCc2c1cc1n(c2=O)Cc2cc3c([N+](=O)[O-])cccc3nc2-1
INCHI: InChI=1S/C20H15N3O6/c1-2-20(26)13-7-16-17-10(8-22(16)18(24)12(13)9-29-19(20)25)6-11-14(21-17)4-3-5-15(11)23(27)28/h3-7,26H,2,8-9H2,1H3/t20-/m0/s1
INCHIKEY: VHXNKPBCCMUMSW-FQEVSTJZSA-N
RETENTIONTIME: 5.865150
COMMENT: dataset=RIKEN_MONA; source_file=external_data/raw_libraries/RIKEN_MONA.xlsx; source_row=44; RT_sec=351.909
Num Peaks: 45
202.072770 0.600000
220.109420 0.500000
222.078140 0.500000
235.094850 0.600000
245.072560 0.700000
247.087880 3.700000
248.085110 1.500000
248.097200 1.300000
263.070920 1.500000
264.074950 1.300000
274.108950 0.500000
279.063540 0.800000
291.043240 1.000000
291.069120 7.800000
292.069430 2.000000
292.091190 1.700000
292.103180 0.500000
292.135310 0.600000
293.069520 2.200000
293.081150 4.000000
293.093720 1.200000
293.135930 0.600000
294.087040 1.200000
295.087280 0.600000
304.122250 14.000000
305.121730 3.500000
305.145940 0.600000
306.138120 0.600000
319.065770 1.300000
320.077450 0.600000
320.123900 0.800000
348.096310 1.500000
348.109530 2.700000
350.115840 9.900000
351.117610 4.600000
365.057460 2.700000
365.069550 2.700000
365.086060 0.900000
366.054260 0.700000
366.074250 1.000000
394.037780 0.700000
394.053500 0.700000
394.066130 0.800000
394.103030 100.000000
394.162410 0.600000

NAME: Acacetin
SCANNUMBER: RIKEN_MONA_45
PRECURSORMZ: 285.075750
PRECURSORTYPE: [M+H]+
IONMODE: Positive
SPECTRUMTYPE: MS2
COLLISIONENERGY: 10 eV
FORMULA: C16H12O5
SMILES: COc1ccc(-c2cc(=O)c3c(O)cc(O)cc3o2)cc1
INCHI: InChI=1S/C16H12O5/c1-20-11-4-2-9(3-5-11)14-8-13(19)16-12(18)6-10(17)7-15(16)21-14/h2-8,17-18H,1H3
INCHIKEY: DANYIYRPLHHOCZ-UHFFFAOYSA-N
RETENTIONTIME: 7.376033
COMMENT: dataset=RIKEN_MONA; source_file=external_data/raw_libraries/RIKEN_MONA.xlsx; source_row=45; RT_sec=442.561979999999
Num Peaks: 10
133.060760 1.300000
153.018130 6.400000
241.048750 1.000000
242.056340 32.500000
243.060300 5.900000
244.065770 0.700000
270.051510 11.500000
271.052190 1.600000
285.074130 100.000000
285.122440 2.100000

NAME: Acacetin-7-O-neohesperidoside
SCANNUMBER: RIKEN_MONA_46
PRECURSORMZ: 593.186482
PRECURSORTYPE: [M+H]+
IONMODE: Positive
SPECTRUMTYPE: MS2
COLLISIONENERGY: 10 eV
FORMULA: C28H32O14
SMILES: COc1ccc(-c2cc(=O)c3c(O)cc(O[C@@H]4O[C@H](CO)[C@@H](O)[C@H](O)[C@H]4O[C@@H]4O[C@@H](C)[C@H](O)[C@@H](O)[C@H]4O)cc3o2)cc1
INCHI: InChI=1S/C28H32O14/c1-11-21(32)23(34)25(36)27(38-11)42-26-24(35)22(33)19(10-29)41-28(26)39-14-7-15(30)20-16(31)9-17(40-18(20)8-14)12-3-5-13(37-2)6-4-12/h3-9,11,19,21-30,32-36H,10H2,1-2H3/t11-,19+,21-,22+,23+,24-,25+,26+,27-,28+/m0/s1
INCHIKEY: MLWDGPFGTFOLRJ-CUVHLRMHSA-N
RETENTIONTIME: 5.257767
COMMENT: dataset=RIKEN_MONA; source_file=external_data/raw_libraries/RIKEN_MONA.xlsx; source_row=46; RT_sec=315.46602
Num Peaks: 9
270.050780 0.800000
285.075620 100.000000
285.124510 1.200000
286.030910 0.600000
286.078800 18.300000
287.081850 3.400000
447.129270 1.300000
593.127690 0.600000
593.188350 29.700000

NAME: Acacetin-7-O-rutinoside
SCANNUMBER: RIKEN_MONA_47
PRECURSORMZ: 593.186482
PRECURSORTYPE: [M+H]+
IONMODE: Positive
SPECTRUMTYPE: MS2
COLLISIONENERGY: 10 eV
FORMULA: C28H32O14
SMILES: COc1ccc(-c2cc(=O)c3c(O)cc(O[C@@H]4O[C@H](CO[C@@H]5O[C@@H](C)[C@H](O)[C@@H](O)[C@H]5O)[C@@H](O)[C@H](O)[C@H]4O)cc3o2)cc1
INCHI: InChI=1S/C28H32O14/c1-11-21(31)23(33)25(35)27(39-11)38-10-19-22(32)24(34)26(36)28(42-19)40-14-7-15(29)20-16(30)9-17(41-18(20)8-14)12-3-5-13(37-2)6-4-12/h3-9,11,19,21-29,31-36H,10H2,1-2H3/t11-,19+,21-,22+,23+,24-,25+,26+,27+,28+/m0/s1
INCHIKEY: YFVGIJBUXMQFOF-PJOVQGMDSA-N
RETENTIONTIME: 5.192966
COMMENT: dataset=RIKEN_MONA; source_file=external_data/raw_libraries/RIKEN_MONA.xlsx; source_row=47; RT_sec=311.57796
Num Peaks: 19
71.046650 0.700000
200.821150 0.500000
242.059220 0.500000
285.025730 1.500000
285.042020 1.000000
285.076110 100.000000
286.042360 0.600000
286.083040 22.600000
287.075260 1.800000
287.086120 1.600000
294.819730 0.600000
314.815340 0.500000
447.089570 0.900000
447.126220 47.000000
448.104280 0.800000
448.131500 11.100000
449.133970 2.600000
449.156890 0.600000
593.187680 43.800000

NAME: Acetylaconitine
SCANNUMBER: RIKEN_MONA_48
PRECURSORMZ: 688.332752
PRECURSORTYPE: [M+H]+
IONMODE: Positive
SPECTRUMTYPE: MS2
COLLISIONENERGY: 10 eV
FORMULA: C36H49NO12
SMILES: CCN1C[C@]2(COC)C(OC(C)=O)CC(OC)C34[C@@H]2[C@@H](OC)C([C@@H]13)[C@@]1(OC(C)=O)C(O)[C@H](OC)[C@@]2(O)C[C@@H]4[C@@H]1[C@H]2OC(=O)c1ccccc1
INCHI: InChI=1S/C36H49NO12/c1-8-37-16-33(17-43-4)22(47-18(2)38)14-23(44-5)35-21-15-34(42)30(48-32(41)20-12-10-9-11-13-20)24(21)36(49-19(3)39,29(40)31(34)46-7)25(28(35)37)26(45-6)27(33)35/h9-13,21-31,40,42H,8,14-17H2,1-7H3/t21-,22?,23?,24-,25?,26+,27-,28-,29?,30-,31+,33+,34-,35?,36-/m1/s1
INCHIKEY: RIPYIJVYDYCPKW-QQFAVBIZSA-N
RETENTIONTIME: 6.173483
COMMENT: dataset=RIKEN_MONA; source_file=external_data/raw_libraries/RIKEN_MONA.xlsx; source_row=48; RT_sec=370.40898
Num Peaks: 15
410.198520 0.600000
536.264100 2.600000
537.272030 0.600000
568.275630 0.900000
568.291140 2.700000
569.300420 0.600000
596.286620 2.500000
597.276310 0.600000
628.261050 0.500000
628.312010 13.100000
629.320740 4.100000
630.308720 1.000000
688.245300 1.200000
688.332640 100.000000
688.407960 1.300000

NAME: Aconitine
SCANNUMBER: RIKEN_MONA_49
PRECURSORMZ: 646.322188
PRECURSORTYPE: [M+H]+
IONMODE: Positive
SPECTRUMTYPE: MS2
COLLISIONENERGY: 10 eV
FORMULA: C34H47NO11
SMILES: CCN1C[C@@]2(COC)[C@H]3[C@@H](OC)[C@H]4[C@H]1[C@]3([C@@H](OC)C[C@H]2O)[C@@H]1C[C@]2(O)[C@@H](OC)[C@H](O)[C@@]4(OC(C)=O)[C@H]1[C@H]2OC(=O)c1ccccc1
INCHI: InChI=1S/C34H47NO11/c1-7-35-15-31(16-41-3)20(37)13-21(42-4)33-19-14-32(40)28(45-30(39)18-11-9-8-10-12-18)22(19)34(46-17(2)36,27(38)29(32)44-6)23(26(33)35)24(43-5)25(31)33/h8-12,19-29,37-38,40H,7,13-16H2,1-6H3/t19-,20-,21+,22-,23+,24+,25-,26+,27+,28-,29+,31+,32-,33+,34-/m1/s1
INCHIKEY: XFSBVAOIAHNAPC-XZHDXZNSSA-N
RETENTIONTIME: 5.965333
COMMENT: dataset=RIKEN_MONA; source_file=external_data/raw_libraries/RIKEN_MONA.xlsx; source_row=49; RT_sec=357.91998
Num Peaks: 14
105.034160 0.700000
368.183260 1.200000
526.282710 2.400000
536.264830 1.000000
554.267880 1.300000
554.291750 0.800000
555.281370 0.600000
586.299990 12.000000
587.304930 5.600000
588.314700 1.200000
646.224980 1.200000
646.257080 1.200000
646.322630 100.000000
646.397580 1.300000

NAME: Ajmaline
SCANNUMBER: RIKEN_MONA_50
PRECURSORMZ: 327.206705
PRECURSORTYPE: [M+H]+
IONMODE: Positive
SPECTRUMTYPE: MS2
COLLISIONENERGY: 10 eV
FORMULA: C20H26N2O2
SMILES: CC[C@H]1[C@@H]2CC3[C@@H]4N(C)c5ccccc5[C@]45C[C@@H](C2[C@H]5O)N3[C@@H]1O
INCHI: InChI=1S/C20H26N2O2/c1-3-10-11-8-14-17-20(12-6-4-5-7-13(12)21(17)2)9-15(16(11)18(20)23)22(14)19(10)24/h4-7,10-11,14-19,23-24H,3,8-9H2,1-2H3/t10-,11-,14?,15-,16?,17-,18+,19+,20+/m0/s1
INCHIKEY: CJDRUOGAGYHKKD-UORGRDHFSA-N
RETENTIONTIME: 4.126867
COMMENT: dataset=RIKEN_MONA; source_file=external_data/raw_libraries/RIKEN_MONA.xlsx; source_row=50; RT_sec=247.61202
Num Peaks: 20
110.097650 0.900000
138.091540 0.500000
144.082430 3.500000
146.096890 0.800000
158.097210 3.600000
159.097400 0.700000
170.093570 0.600000
181.088590 0.500000
182.097490 1.800000
184.113040 0.700000
194.097370 1.300000
210.131930 1.300000
211.130100 0.500000
212.106000 1.100000
220.119710 0.600000
238.123830 0.800000
239.156980 0.900000
291.188810 0.700000
327.207920 100.000000
327.259550 2.500000

NAME: Aloe-emodin
SCANNUMBER: RIKEN_MONA_51
PRECURSORMZ: 271.060100
PRECURSORTYPE: [M+H]+
IONMODE: Positive
SPECTRUMTYPE: MS2
COLLISIONENERGY: 10 eV
FORMULA: C15H10O5
SMILES: O=C1c2cccc(O)c2C(=O)c2c(O)cc(CO)cc21
INCHI: InChI=1S/C15H10O5/c16-6-7-4-9-13(11(18)5-7)15(20)12-8(14(9)19)2-1-3-10(12)17/h1-5,16-18H,6H2
INCHIKEY: YDQWDHRMZQUTBA-UHFFFAOYSA-N
RETENTIONTIME: 5.877900
COMMENT: dataset=RIKEN_MONA; source_file=external_data/raw_libraries/RIKEN_MONA.xlsx; source_row=51; RT_sec=352.674
Num Peaks: 15
91.050740 0.800000
91.056610 0.800000
111.010710 1.000000
119.046660 2.500000
121.029190 0.600000
145.024690 0.600000
145.032780 0.900000
153.018250 9.700000
154.022320 0.600000
163.038440 0.700000
197.065050 0.600000
229.049930 0.500000
271.024260 1.300000
271.060240 100.000000
271.108030 1.400000

NAME: Amygdalin
SCANNUMBER: RIKEN_MONA_52
PRECURSORMZ: 458.165687
PRECURSORTYPE: [M+H]+
IONMODE: Positive
SPECTRUMTYPE: MS2
COLLISIONENERGY: 10 eV
FORMULA: C20H27NO11
SMILES: N#C[C@H](O[C@@H]1O[C@H](CO[C@@H]2O[C@H](CO)[C@@H](O)[C@H](O)[C@H]2O)[C@@H](O)[C@H](O)[C@H]1O)c1ccccc1
INCHI: InChI=1S/C20H27NO11/c21-6-10(9-4-2-1-3-5-9)30-20-18(28)16(26)14(24)12(32-20)8-29-19-17(27)15(25)13(23)11(7-22)31-19/h1-5,10-20,22-28H,7-8H2/t10-,11+,12+,13+,14+,15-,16-,17+,18+,19+,20+/m0/s1
INCHIKEY: XUCIJNAGGSZNQT-JHSLDZJXSA-N
RETENTIONTIME: 3.319517
COMMENT: dataset=RIKEN_MONA; source_file=external_data/raw_libraries/RIKEN_MONA.xlsx; source_row=52; RT_sec=199.17102
Num Peaks: 32
85.026450 46.100000
87.035740 6.200000
96.041000 6.900000
97.031770 11.100000
98.037630 14.100000
109.024890 13.700000
127.033740 10.800000
127.053280 6.500000
134.050160 5.600000
134.057370 6.500000
142.045640 7.800000
144.067280 9.800000
145.047390 11.800000
145.055850 18.300000
146.061000 7.500000
158.103070 8.500000
160.059590 8.800000
160.071750 5.900000
161.041990 6.500000
163.061630 50.300000
232.104050 6.500000
250.101900 14.100000
271.079530 6.500000
279.117030 8.500000
296.087770 6.900000
296.113680 100.000000
297.118710 13.700000
325.113860 11.800000
325.130710 5.900000
384.170010 7.800000
458.161010 53.600000
458.191530 18.300000

NAME: Anabasamine
SCANNUMBER: RIKEN_MONA_53
PRECURSORMZ: 254.165174
PRECURSORTYPE: [M+H]+
IONMODE: Positive
SPECTRUMTYPE: MS2
COLLISIONENERGY: 10 eV
FORMULA: C16H19N3
SMILES: CN1CCCCC1c1ccc(-c2cccnc2)nc1
INCHI: InChI=1S/C16H19N3/c1-19-10-3-2-6-16(19)14-7-8-15(18-12-14)13-5-4-9-17-11-13/h4-5,7-9,11-12,16H,2-3,6,10H2,1H3
INCHIKEY: TZRDBHMKTWECOV-UHFFFAOYSA-N
RETENTIONTIME: 2.371150
COMMENT: dataset=RIKEN_MONA; source_file=external_data/raw_libraries/RIKEN_MONA.xlsx; source_row=53; RT_sec=142.269
Num Peaks: 42
84.085900 0.500000
96.080750 1.000000
130.069790 1.100000
142.059560 0.500000
142.066680 0.900000
143.069230 0.700000
144.081360 1.400000
156.071350 0.700000
156.079480 0.900000
157.075240 8.000000
158.082110 0.800000
168.068730 0.700000
168.076890 0.700000
169.077260 7.500000
170.081670 5.000000
170.087940 2.300000
170.101120 0.700000
171.091750 16.300000
172.093230 2.000000
172.101150 2.100000
183.085980 1.700000
183.091810 4.800000
184.100010 0.800000
194.076660 1.200000
194.086820 1.500000
195.091720 5.300000
196.113460 1.000000
197.093700 0.600000
197.108990 5.200000
198.114200 1.600000
207.079970 0.900000
207.091920 3.600000
208.092990 0.900000
208.101640 0.900000
208.111710 0.500000
209.108670 1.600000
211.113910 1.000000
211.126600 1.400000
223.124510 8.900000
224.130910 1.100000
254.122100 0.500000
254.166730 100.000000

NAME: Anthranoyllycoctonine
SCANNUMBER: RIKEN_MONA_54
PRECURSORMZ: 587.332693
PRECURSORTYPE: [M+H]+
IONMODE: Positive
SPECTRUMTYPE: MS2
COLLISIONENERGY: 10 eV
FORMULA: C32H46N2O8
SMILES: CCN1C[C@]2(COC(=O)c3ccccc3N)CC[C@H](OC)[C@@]34[C@@H]5C[C@@H]6[C@@H](OC)C[C@@](O)([C@H]5[C@H]6OC)[C@@](O)([C@@H](OC)[C@H]23)[C@H]14
INCHI: InChI=1S/C32H46N2O8/c1-6-34-15-29(16-42-27(35)17-9-7-8-10-20(17)33)12-11-22(39-3)31-19-13-18-21(38-2)14-30(36,23(19)24(18)40-4)32(37,28(31)34)26(41-5)25(29)31/h7-10,18-19,21-26,28,36-37H,6,11-16,33H2,1-5H3/t18-,19-,21+,22+,23-,24+,25-,26+,28-,29+,30-,31+,32-/m1/s1
INCHIKEY: NNDHDYDFEDRMGH-CCONKYERSA-N
RETENTIONTIME: 5.499933
COMMENT: dataset=RIKEN_MONA; source_file=external_data/raw_libraries/RIKEN_MONA.xlsx; source_row=54; RT_sec=329.99598
Num Peaks: 17
108.080590 1.100000
120.045020 1.600000
354.201260 0.600000
386.228910 0.600000
386.240910 0.600000
404.241210 0.800000
505.274140 0.600000
523.268980 0.900000
523.293880 0.900000
555.308840 1.700000
556.309880 0.600000
585.319640 0.700000
586.308290 0.600000
586.332700 0.600000
587.249150 1.000000
587.333920 100.000000
587.410710 1.700000

NAME: Apigenin
SCANNUMBER: RIKEN_MONA_55
PRECURSORMZ: 271.060100
PRECURSORTYPE: [M+H]+
IONMODE: Positive
SPECTRUMTYPE: MS2
COLLISIONENERGY: 10 eV
FORMULA: C15H10O5
SMILES: O=c1cc(-c2ccc(O)cc2)oc2cc(O)cc(O)c12
INCHI: InChI=1S/C15H10O5/c16-9-3-1-8(2-4-9)13-7-12(19)15-11(18)5-10(17)6-14(15)20-13/h1-7,16-18H
INCHIKEY: KZNIFHPLKGYRTM-UHFFFAOYSA-N
RETENTIONTIME: 5.891117
COMMENT: dataset=RIKEN_MONA; source_file=external_data/raw_libraries/RIKEN_MONA.xlsx; source_row=55; RT_sec=353.46702
Num Peaks: 10
91.052700 0.800000
119.041460 0.500000
119.049740 1.800000
145.027600 1.800000
153.017330 8.600000
154.018940 0.900000
229.052570 0.600000
271.028230 1.200000
271.059660 100.000000
271.108700 1.100000

NAME: Apigenin-6-C-glucoside-7-O-glucoside
SCANNUMBER: RIKEN_MONA_56
PRECURSORMZ: 595.165747
PRECURSORTYPE: [M+H]+
IONMODE: Positive
SPECTRUMTYPE: MS2
COLLISIONENERGY: 10 eV
FORMULA: C27H30O15
SMILES: O=c1cc(-c2ccc(O)cc2)oc2cc(O[C@@H]3O[C@H](CO)[C@@H](O)[C@H](O)[C@H]3O)c([C@@H]3O[C@H](CO)[C@@H](O)[C@H](O)[C@H]3O)c(O)c12
INCHI: InChI=1S/C27H30O15/c28-7-15-19(32)22(35)24(37)26(40-15)18-14(41-27-25(38)23(36)20(33)16(8-29)42-27)6-13-17(21(18)34)11(31)5-12(39-13)9-1-3-10(30)4-2-9/h1-6,15-16,19-20,22-30,32-38H,7-8H2/t15-,16-,19-,20-,22+,23+,24-,25-,26+,27-/m1/s1
INCHIKEY: HGUVPEBGCAVWID-KETMJRJWSA-N
RETENTIONTIME: 3.524367
COMMENT: dataset=RIKEN_MONA; source_file=external_data/raw_libraries/RIKEN_MONA.xlsx; source_row=56; RT_sec=211.46202
Num Peaks: 98
173.023190 0.500000
271.050900 2.400000
271.062840 2.100000
271.077880 1.000000
272.064880 1.100000
282.083560 0.700000
283.035000 3.800000
283.058650 59.100000
284.063600 9.200000
285.060180 0.800000
285.071900 2.000000
295.039220 0.500000
295.057190 2.200000
295.070400 0.600000
296.063840 2.000000
297.068080 1.100000
309.034640 2.000000
309.047450 0.500000
309.072940 9.000000
310.084080 0.700000
311.060360 0.800000
313.021000 0.500000
313.042140 1.300000
313.070160 47.700000
314.048070 1.300000
314.074280 12.000000
315.081600 0.900000
323.089110 5.400000
323.108490 0.600000
324.088410 1.600000
324.104370 0.600000
325.024290 0.600000
325.071080 0.800000
327.080230 0.700000
333.009340 0.500000
333.067260 0.500000
335.052580 0.600000
337.040950 2.200000
337.071440 43.800000
337.811370 0.500000
338.057980 2.300000
338.074340 9.200000
339.054690 0.700000
349.063540 5.900000
349.081450 2.900000
351.074890 1.600000
351.093080 1.200000
352.094330 0.500000
354.059330 0.500000
355.082150 0.600000
357.161560 0.500000
361.052920 1.100000
361.072390 7.700000
362.080110 1.000000
367.056120 2.200000
367.073240 9.400000
367.090240 13.700000
367.146940 0.600000
368.056150 1.200000
368.081880 7.300000
368.102510 0.500000
379.082030 21.400000
380.078920 2.800000
380.095370 1.400000
380.673800 0.600000
381.087310 1.800000
397.092470 21.000000
398.077610 0.700000
398.095700 2.700000
399.089970 0.800000
415.057040 0.600000
415.101900 28.900000
416.072970 0.700000
416.103390 6.800000
416.134950 1.300000
417.112850 2.600000
433.073270 0.500000
433.113710 23.100000
434.083770 0.600000
434.115720 7.400000
436.408600 0.500000
447.991640 0.600000
475.128810 6.100000
476.130220 1.300000
494.121090 0.800000
499.122010 0.800000
500.124360 0.800000
529.083800 0.800000
541.141110 1.500000
559.138370 1.000000
577.108580 0.800000
577.156680 22.300000
578.141850 1.900000
578.166990 3.500000
579.166380 1.000000
595.025880 0.800000
595.099000 1.400000
595.167300 100.000000

NAME: Apigenin-7-O-glucoside
SCANNUMBER: RIKEN_MONA_57
PRECURSORMZ: 433.112923
PRECURSORTYPE: [M+H]+
IONMODE: Positive
SPECTRUMTYPE: MS2
COLLISIONENERGY: 10 eV
FORMULA: C21H20O10
SMILES: O=c1cc(-c2ccc(O)cc2)oc2cc(O[C@@H]3O[C@H](CO)[C@@H](O)[C@H](O)[C@H]3O)cc(O)c12
INCHI: InChI=1S/C21H20O10/c22-8-16-18(26)19(27)20(28)21(31-16)29-11-5-12(24)17-13(25)7-14(30-15(17)6-11)9-1-3-10(23)4-2-9/h1-7,16,18-24,26-28H,8H2/t16-,18-,19+,20-,21-/m1/s1
INCHIKEY: KMOUJOKENFFTPU-QNDFHXLGSA-N
RETENTIONTIME: 4.453283
COMMENT: dataset=RIKEN_MONA; source_file=external_data/raw_libraries/RIKEN_MONA.xlsx; source_row=57; RT_sec=267.19698
Num Peaks: 7
153.014340 0.800000
271.030150 1.200000
271.059570 100.000000
272.038390 0.600000
272.062930 17.500000
273.064940 3.400000
433.112790 18.700000

NAME: Apigenin-7-O-neohesperidoside
SCANNUMBER: RIKEN_MONA_58
PRECURSORMZ: 579.170832
PRECURSORTYPE: [M+H]+
IONMODE: Positive
SPECTRUMTYPE: MS2
COLLISIONENERGY: 10 eV
FORMULA: C27H30O14
SMILES: C[C@@H]1O[C@@H](O[C@H]2[C@H](Oc3cc(O)c4c(=O)cc(-c5ccc(O)cc5)oc4c3)O[C@H](CO)[C@@H](O)[C@@H]2O)[C@H](O)[C@H](O)[C@H]1O
INCHI: InChI=1S/C27H30O14/c1-10-20(32)22(34)24(36)26(37-10)41-25-23(35)21(33)18(9-28)40-27(25)38-13-6-14(30)19-15(31)8-16(39-17(19)7-13)11-2-4-12(29)5-3-11/h2-8,10,18,20-30,32-36H,9H2,1H3/t10-,18+,20-,21+,22+,23-,24+,25+,26-,27+/m0/s1
INCHIKEY: RPMNUQRUHXIGHK-PYXJVEIZSA-N
RETENTIONTIME: 4.341317
COMMENT: dataset=RIKEN_MONA; source_file=external_data/raw_libraries/RIKEN_MONA.xlsx; source_row=58; RT_sec=260.47902
Num Peaks: 8
271.011840 1.200000
271.026150 1.600000
271.060640 100.000000
272.063810 19.900000
273.065610 2.500000
433.120330 2.200000
434.117550 0.900000
579.172490 32.800000

NAME: Apigenin-8-C-glucoside
SCANNUMBER: RIKEN_MONA_59
PRECURSORMZ: 433.112923
PRECURSORTYPE: [M+H]+
IONMODE: Positive
SPECTRUMTYPE: MS2
COLLISIONENERGY: 10 eV
FORMULA: C21H20O10
SMILES: O=c1cc(-c2ccc(O)cc2)oc2c([C@@H]3O[C@H](CO)[C@@H](O)[C@H](O)[C@H]3O)c(O)cc(O)c12
INCHI: InChI=1S/C21H20O10/c22-7-14-17(27)18(28)19(29)21(31-14)16-11(25)5-10(24)15-12(26)6-13(30-20(15)16)8-1-3-9(23)4-2-8/h1-6,14,17-19,21-25,27-29H,7H2/t14-,17-,18+,19-,21+/m1/s1
INCHIKEY: SGEWCQFRYRRZDC-VPRICQMDSA-N
RETENTIONTIME: 3.964050
COMMENT: dataset=RIKEN_MONA; source_file=external_data/raw_libraries/RIKEN_MONA.xlsx; source_row=59; RT_sec=237.843
Num Peaks: 69
121.024930 0.800000
121.032770 1.300000
165.020420 0.800000
211.066500 0.600000
213.049220 0.500000
217.048340 2.000000
243.036220 1.300000
255.074200 0.700000
256.067290 0.600000
256.077150 1.100000
261.046390 0.600000
271.047940 0.700000
271.062810 0.600000
283.058990 27.900000
284.064150 10.100000
284.077820 4.000000
285.070310 3.500000
286.072600 0.500000
295.056640 4.100000
296.067540 1.200000
297.076660 4.200000
298.082060 0.800000
308.076510 0.900000
309.055390 0.900000
309.080050 0.700000
311.050420 1.300000
313.016880 0.600000
313.048490 3.600000
313.070340 31.900000
314.056610 1.400000
314.074680 6.700000
315.070890 0.800000
321.068050 0.500000
323.065610 1.100000
323.084170 3.700000
323.096220 5.300000
325.077330 1.800000
325.107700 0.600000
327.078700 1.000000
327.092220 0.900000
337.069790 10.300000
337.082030 2.800000
338.074950 1.100000
343.081240 1.600000
343.091920 0.700000
344.080630 0.600000
349.072970 0.900000
351.089140 2.900000
361.072810 0.600000
367.052580 0.700000
367.078830 7.800000
368.086240 1.400000
379.061740 0.800000
379.078950 3.100000
380.090360 0.700000
381.099150 0.600000
397.094020 11.100000
398.082520 2.100000
398.099550 2.400000
399.110080 0.600000
400.102720 0.600000
415.101590 15.100000
416.107240 3.900000
416.121770 1.400000
417.115720 0.800000
433.052310 1.600000
433.069760 1.100000
433.111660 100.000000
433.168700 0.500000

NAME: Apigenin-8-C-glucoside-2'-rhamnoside
SCANNUMBER: RIKEN_MONA_60
PRECURSORMZ: 579.170832
PRECURSORTYPE: [M+H]+
IONMODE: Positive
SPECTRUMTYPE: MS2
COLLISIONENERGY: 10 eV
FORMULA: C27H30O14
SMILES: C[C@@H]1O[C@@H](O[C@H]2[C@H](c3c(O)cc(O)c4c(=O)cc(-c5ccc(O)cc5)oc34)O[C@H](CO)[C@@H](O)[C@@H]2O)[C@H](O)[C@H](O)[C@H]1O
INCHI: InChI=1S/C27H30O14/c1-9-19(33)21(35)23(37)27(38-9)41-26-22(36)20(34)16(8-28)40-25(26)18-13(31)6-12(30)17-14(32)7-15(39-24(17)18)10-2-4-11(29)5-3-10/h2-7,9,16,19-23,25-31,33-37H,8H2,1H3/t9-,16+,19-,20+,21+,22-,23+,25-,26+,27-/m0/s1
INCHIKEY: LYGPBZVKGHHTIE-HUBYJIGHSA-N
RETENTIONTIME: 3.837200
COMMENT: dataset=RIKEN_MONA; source_file=external_data/raw_libraries/RIKEN_MONA.xlsx; source_row=60; RT_sec=230.232
Num Peaks: 55
121.024250 0.800000
243.026540 0.900000
271.059110 1.900000
283.040740 1.700000
283.062010 11.600000
284.060910 2.200000
284.070220 1.800000
295.057830 4.200000
296.074580 0.600000
297.079860 1.100000
309.072360 1.400000
311.050780 1.000000
313.002780 0.800000
313.026120 0.500000
313.073670 26.000000
314.068600 4.200000
314.086210 3.100000
315.077580 1.200000
323.046720 0.500000
323.063660 0.600000
323.081630 1.300000
323.096070 2.200000
324.099790 0.900000
325.068820 1.600000
337.062560 2.900000
337.074550 5.300000
338.067050 1.300000
338.082700 0.900000
343.068020 0.700000
343.084230 1.100000
351.089540 3.800000
352.089540 1.300000
353.097990 0.600000
367.073760 2.900000
367.087590 3.300000
368.078610 0.500000
368.097260 1.200000
379.054380 0.900000
379.080600 6.000000
380.089780 1.500000
381.090820 0.600000
397.088320 11.600000
398.072240 0.600000
398.090480 1.600000
398.100890 2.900000
399.096770 0.600000
415.104250 14.500000
416.104160 5.900000
433.048340 0.500000
433.070680 2.000000
433.112460 56.000000
434.117490 11.800000
435.122280 2.400000
579.121640 3.200000
579.172550 100.000000

NAME: Apigeninidin
SCANNUMBER: RIKEN_MONA_61
PRECURSORMZ: 255.065185
PRECURSORTYPE: [M+H]+
IONMODE: Positive
SPECTRUMTYPE: MS2
COLLISIONENERGY: 10 eV
FORMULA: C15H10O4
SMILES: [O-]c1cc(O)cc2[o+]c(-c3ccc(O)cc3)ccc12
INCHI: InChI=1S/C15H10O4/c16-10-3-1-9(2-4-10)14-6-5-12-13(18)7-11(17)8-15(12)19-14/h1-8H,(H2-,16,17,18)
INCHIKEY: ZKMZBAABQFUXFE-UHFFFAOYSA-N
RETENTIONTIME: 3.865433
COMMENT: dataset=RIKEN_MONA; source_file=external_data/raw_libraries/RIKEN_MONA.xlsx; source_row=61; RT_sec=231.925979999999
Num Peaks: 13
115.053470 0.600000
121.027520 0.800000
128.061290 1.200000
129.067860 0.500000
143.049440 0.900000
152.059800 1.100000
157.065700 2.600000
171.044160 3.900000
181.067470 1.000000
213.054410 1.100000
227.071410 2.200000
255.065340 100.000000
255.110240 0.900000

NAME: Arbutin
SCANNUMBER: RIKEN_MONA_62
PRECURSORMZ: 271.082326
PRECURSORTYPE: [M-H]-
IONMODE: Negative
SPECTRUMTYPE: MS2
COLLISIONENERGY: 10 eV
FORMULA: C12H16O7
SMILES: OCC1OC(Oc2ccc(O)cc2)C(O)C(O)C1O
INCHI: InChI=1S/C12H16O7/c13-5-8-9(15)10(16)11(17)12(19-8)18-7-3-1-6(14)2-4-7/h1-4,8-17H,5H2
INCHIKEY: BJRNKVDFDLYUGJ-UHFFFAOYSA-N
RETENTIONTIME: 1.877767
COMMENT: dataset=RIKEN_MONA; source_file=external_data/raw_libraries/RIKEN_MONA.xlsx; source_row=62; RT_sec=112.66602
Num Peaks: 16
71.015290 7.200000
95.002800 3.300000
97.026730 5.000000
101.020450 3.100000
107.507870 3.100000
108.020680 100.000000
109.025050 18.800000
109.032590 7.900000
113.025010 7.400000
122.029360 4.100000
123.045880 7.200000
136.039660 3.300000
159.017410 3.400000
161.036700 7.800000
161.045150 21.400000
271.075320 4.700000

NAME: Arctigenin
SCANNUMBER: RIKEN_MONA_63
PRECURSORMZ: 373.164565
PRECURSORTYPE: [M+H]+
IONMODE: Positive
SPECTRUMTYPE: MS2
COLLISIONENERGY: 10 eV
FORMULA: C21H24O6
SMILES: COc1cc(C[C@H]2C(=O)OC[C@@H]2Cc2ccc(OC)c(OC)c2)ccc1O
INCHI: InChI=1S/C21H24O6/c1-24-18-7-5-13(11-20(18)26-3)8-15-12-27-21(23)16(15)9-14-4-6-17(22)19(10-14)25-2/h4-7,10-11,15-16,22H,8-9,12H2,1-3H3/t15-,16+/m0/s1
INCHIKEY: NQWVSMVXKMHKTF-JKSUJKDBSA-N
RETENTIONTIME: 6.626317
COMMENT: dataset=RIKEN_MONA; source_file=external_data/raw_libraries/RIKEN_MONA.xlsx; source_row=63; RT_sec=397.57902
Num Peaks: 68
121.067740 2.000000
122.035020 3.100000
137.059560 100.000000
138.063800 8.200000
139.067340 0.700000
145.067730 0.700000
146.072830 1.700000
147.039760 0.600000
147.078320 0.800000
149.054920 1.200000
149.063060 3.000000
150.063690 0.600000
151.075210 11.000000
152.080600 1.900000
161.059490 0.600000
163.073790 0.600000
165.056610 1.900000
175.073650 0.600000
177.055450 1.100000
177.090390 12.100000
178.083880 0.700000
178.094570 1.800000
179.071240 0.900000
187.074140 0.900000
189.086440 1.000000
189.092820 1.100000
191.111830 0.900000
193.085420 0.800000
201.086350 1.200000
203.085650 0.700000
217.082780 0.600000
219.097890 3.000000
220.103840 0.600000
235.093640 0.800000
235.108930 1.000000
237.112140 12.800000
238.114670 2.000000
245.091110 0.700000
245.101650 0.700000
246.099900 1.000000
249.117370 0.800000
262.098690 2.000000
263.105440 0.700000
273.079130 0.500000
273.094420 1.500000
274.102360 1.500000
277.121800 2.800000
290.099270 1.800000
291.101070 1.900000
292.106720 1.000000
295.130950 4.400000
305.117430 21.400000
306.109470 1.500000
306.123570 2.700000
306.137150 1.900000
307.134090 0.900000
308.107450 0.700000
323.129060 6.600000
324.126890 1.000000
324.141660 0.600000
337.143830 7.100000
338.145050 1.100000
355.153440 20.200000
356.151180 3.300000
356.166410 3.300000
357.153410 0.900000
372.158050 3.700000
373.163210 39.100000

NAME: Arctiin
SCANNUMBER: RIKEN_MONA_64
PRECURSORMZ: 533.202835
PRECURSORTYPE: [M-H]-
IONMODE: Negative
SPECTRUMTYPE: MS2
COLLISIONENERGY: 10 eV
FORMULA: C27H34O11
SMILES: COc1ccc(CC2COC(=O)C2Cc2ccc(OC3OC(CO)C(O)C(O)C3O)c(OC)c2)cc1OC
INCHI: InChI=1S/C27H34O11/c1-33-18-6-4-14(10-20(18)34-2)8-16-13-36-26(32)17(16)9-15-5-7-19(21(11-15)35-3)37-27-25(31)24(30)23(29)22(12-28)38-27/h4-7,10-11,16-17,22-25,27-31H,8-9,12-13H2,1-3H3
INCHIKEY: XOJVHLIYNSOZOO-UHFFFAOYSA-N
RETENTIONTIME: 5.179650
COMMENT: dataset=RIKEN_MONA; source_file=external_data/raw_libraries/RIKEN_MONA.xlsx; source_row=64; RT_sec=310.779
Num Peaks: 9
108.018680 12.300000
121.025650 12.300000
136.049740 14.600000
295.125980 14.600000
371.145810 100.000000
372.142790 13.100000
373.158510 15.400000
485.158840 13.800000
533.186710 17.700000

NAME: Aristolochic acid B
SCANNUMBER: RIKEN_MONA_65
PRECURSORMZ: 312.050264
PRECURSORTYPE: [M+H]+
IONMODE: Positive
SPECTRUMTYPE: MS2
COLLISIONENERGY: 10 eV
FORMULA: C16H9NO6
SMILES: O=C(O)c1cc2c(c3c1c([N+](=O)[O-])cc1ccccc13)OCO2
INCHI: InChI=1S/C16H9NO6/c18-16(19)10-6-12-15(23-7-22-12)14-9-4-2-1-3-8(9)5-11(13(10)14)17(20)21/h1-6H,7H2,(H,18,19)
INCHIKEY: MEEXETVZNQYRSP-UHFFFAOYSA-N
RETENTIONTIME: 7.551650
COMMENT: dataset=RIKEN_MONA; source_file=external_data/raw_libraries/RIKEN_MONA.xlsx; source_row=65; RT_sec=453.099
Num Peaks: 12
152.049700 100.000000
155.061660 33.300000
155.071950 34.900000
166.581220 27.000000
180.040150 47.600000
183.042760 28.600000
208.046450 61.900000
220.034070 28.600000
236.019820 33.300000
251.035860 27.000000
265.050350 33.300000
312.050200 27.000000

NAME: Aristolochic acid C
SCANNUMBER: RIKEN_MONA_66
PRECURSORMZ: 328.045178
PRECURSORTYPE: [M+H]+
IONMODE: Positive
SPECTRUMTYPE: MS2
COLLISIONENERGY: 10 eV
FORMULA: C16H9NO7
SMILES: O=C(O)c1cc2c(c3c1c([N+](=O)[O-])cc1ccc(O)cc13)OCO2
INCHI: InChI=1S/C16H9NO7/c18-8-2-1-7-3-11(17(21)22)13-10(16(19)20)5-12-15(24-6-23-12)14(13)9(7)4-8/h1-5,18H,6H2,(H,19,20)
INCHIKEY: NBFGYDJKTHENDP-UHFFFAOYSA-N
RETENTIONTIME: 5.956833
COMMENT: dataset=RIKEN_MONA; source_file=external_data/raw_libraries/RIKEN_MONA.xlsx; source_row=66; RT_sec=357.409979999999
Num Peaks: 37
153.064760 19.300000
154.080180 9.400000
155.049220 11.500000
155.081890 11.500000
164.045120 13.500000
180.037630 26.600000
181.068480 20.300000
182.063800 13.500000
194.041560 10.900000
208.057720 19.300000
208.420620 14.100000
209.076950 14.100000
211.121110 13.500000
212.070020 9.400000
224.039700 14.600000
224.050920 16.100000
226.026210 13.000000
237.033720 30.700000
237.054050 32.800000
237.065660 11.500000
238.062740 10.400000
253.050670 22.900000
256.059720 13.500000
266.041050 12.000000
266.051180 22.400000
267.049440 12.000000
267.059840 15.600000
281.031040 9.900000
281.047420 24.000000
282.049710 100.000000
284.055450 45.800000
284.071080 13.500000
285.055510 8.900000
285.068660 15.100000
310.023900 14.600000
310.036320 19.800000
311.032410 15.100000

NAME: Asiaticoside
SCANNUMBER: RIKEN_MONA_67
PRECURSORMZ: 959.521007
PRECURSORTYPE: [M+H]+
IONMODE: Positive
SPECTRUMTYPE: MS2
COLLISIONENERGY: 10 eV
FORMULA: C48H78O19
SMILES: CC1CCC2(C(=O)OC3OC(COC4OC(CO)C(OC5OC(C)C(O)C(O)C5O)C(O)C4O)C(O)C(O)C3O)CCC3(C)C(=CCC4C5(C)CC(O)C(O)C(C)(CO)C5CCC43C)C2C1C
INCHI: InChI=1S/C48H78O19/c1-20-10-13-48(15-14-46(6)23(29(48)21(20)2)8-9-28-44(4)16-24(51)39(60)45(5,19-50)27(44)11-12-47(28,46)7)43(61)67-42-36(58)33(55)31(53)26(65-42)18-62-40-37(59)34(56)38(25(17-49)64-40)66-41-35(57)32(54)30(52)22(3)63-41/h8,20-22,24-42,49-60H,9-19H2,1-7H3
INCHIKEY: WYQVAPGDARQUBT-UHFFFAOYSA-N
RETENTIONTIME: 5.209850
COMMENT: dataset=RIKEN_MONA; source_file=external_data/raw_libraries/RIKEN_MONA.xlsx; source_row=67; RT_sec=312.591
Num Peaks: 135
85.027110 2.000000
85.035270 1.500000
111.026000 1.400000
111.042010 1.500000
125.088840 1.300000
125.095670 1.500000
129.042830 1.200000
129.056050 2.000000
145.045380 1.500000
147.043620 1.300000
147.061370 4.300000
147.071500 3.300000
147.118190 1.600000
151.108510 1.900000
173.047030 1.600000
175.065090 1.500000
175.115250 1.800000
175.149000 1.500000
187.144230 4.900000
189.163990 1.700000
192.151840 1.500000
199.144710 3.000000
201.153180 1.600000
206.630720 1.700000
209.150280 1.400000
211.301510 1.400000
215.188810 2.700000
217.148410 1.300000
219.171890 1.300000
233.189730 2.800000
235.159030 1.500000
235.171420 2.800000
238.065660 1.700000
243.097890 1.200000
244.178150 1.600000
248.170700 1.500000
253.178250 1.800000
254.200500 1.600000
255.091780 3.700000
261.187440 2.000000
267.211060 1.500000
273.092960 7.700000
273.137120 1.500000
274.094210 2.600000
294.173890 1.500000
302.351470 1.200000
308.336520 1.500000
309.114650 38.900000
309.135680 2.400000
310.109710 2.500000
310.127780 4.300000
321.012540 1.200000
325.106140 1.900000
326.119110 1.300000
329.251740 1.200000
351.113190 1.200000
354.265990 1.500000
389.303410 1.200000
407.301760 7.100000
407.325740 9.800000
407.352200 1.400000
408.328830 3.800000
417.131500 1.500000
424.328610 1.500000
425.339840 1.500000
426.328490 1.700000
435.126800 1.300000
435.141910 1.500000
435.290100 1.500000
435.330380 8.500000
435.699710 1.400000
436.302610 1.400000
436.340880 1.500000
442.354370 1.400000
443.351410 1.600000
453.335910 47.900000
454.335420 20.700000
454.372310 1.300000
455.344700 1.500000
469.737980 1.600000
471.154880 1.800000
471.181400 11.000000
471.339050 11.400000
471.355680 14.100000
472.353300 6.500000
473.174320 1.500000
473.377690 1.300000
487.360110 1.200000
489.326110 4.900000
489.362000 16.200000
490.357850 5.000000
490.370060 2.500000
491.375060 1.700000
596.799320 1.400000
600.395630 1.300000
607.378780 1.500000
621.331730 1.500000
621.611510 1.800000
633.370730 1.200000
633.401730 1.200000
635.403500 10.100000
635.422670 12.000000
635.447690 3.300000
636.385620 1.300000
637.428890 1.300000
637.450930 1.200000
638.422670 1.200000
651.330440 1.600000
651.394780 9.400000
651.431640 4.700000
652.364810 1.200000
652.403320 3.100000
652.437990 3.000000
653.432680 6.500000
654.395510 2.500000
761.455750 1.200000
790.985780 1.500000
796.480410 1.500000
797.440060 6.900000
797.474790 24.000000
797.514340 1.400000
798.465330 8.300000
798.514280 2.900000
799.437740 2.800000
799.462770 2.700000
799.500730 2.500000
813.386230 1.500000
813.458740 4.000000
813.491090 1.200000
814.455810 7.500000
814.512940 1.200000
815.494380 1.400000
867.565920 2.400000
943.555790 1.700000
959.519900 100.000000

NAME: Atractylenolide III
SCANNUMBER: RIKEN_MONA_68
PRECURSORMZ: 249.148521
PRECURSORTYPE: [M+H]+
IONMODE: Positive
SPECTRUMTYPE: MS2
COLLISIONENERGY: 10 eV
FORMULA: C15H20O3
SMILES: C=C1CCC[C@]2(C)C[C@]3(O)OC(=O)C(C)=C3C[C@@H]12
INCHI: InChI=1S/C15H20O3/c1-9-5-4-6-14(3)8-15(17)12(7-11(9)14)10(2)13(16)18-15/h11,17H,1,4-8H2,2-3H3/t11-,14+,15-/m0/s1
INCHIKEY: FBMORZZOJSDNRQ-GLQYFDAESA-N
RETENTIONTIME: 7.912717
COMMENT: dataset=RIKEN_MONA; source_file=external_data/raw_libraries/RIKEN_MONA.xlsx; source_row=68; RT_sec=474.76302
Num Peaks: 89
69.071690 0.900000
77.033520 0.800000
79.051640 1.100000
79.056340 0.500000
81.070240 1.000000
91.056860 2.400000
92.748370 0.500000
93.068000 1.700000
95.088100 1.200000
97.061210 0.600000
103.056220 1.400000
104.057310 0.500000
105.069540 6.100000
105.080510 0.800000
106.067090 0.600000
107.042970 0.700000
107.048000 1.000000
107.086430 2.700000
109.066030 0.900000
115.052510 0.600000
117.065620 0.800000
119.085010 4.300000
121.062060 2.200000
124.081660 0.500000
128.066380 1.100000
129.071470 1.300000
131.080000 1.000000
133.103700 1.700000
135.044650 6.900000
137.055630 0.700000
142.082340 1.300000
143.082820 0.800000
143.091430 1.300000
146.101490 0.600000
147.045620 1.000000
147.079480 2.100000
147.113800 1.100000
149.061130 8.000000
151.068880 1.200000
151.083160 0.500000
155.078350 0.600000
156.092850 1.300000
157.091200 2.200000
157.100780 1.200000
158.108470 0.600000
159.120300 4.200000
160.128910 1.300000
161.043730 0.600000
161.061940 8.700000
161.101470 1.000000
161.134750 1.100000
162.064180 1.900000
163.070600 9.100000
163.078160 10.600000
164.075040 0.500000
164.084230 1.000000
165.948550 0.700000
171.121580 0.600000
173.334430 0.700000
174.995290 0.800000
175.071090 4.500000
175.077330 2.400000
175.109660 1.400000
175.148060 0.700000
176.076230 0.700000
176.153090 0.500000
177.081880 0.600000
180.098480 0.500000
185.081860 0.500000
185.101320 0.800000
185.134280 5.000000
186.127060 0.500000
186.135190 1.600000
188.121490 0.900000
189.090390 7.500000
189.102050 2.300000
189.128040 1.400000
190.094500 1.600000
195.120610 1.000000
203.145720 5.200000
203.153640 1.300000
213.132520 4.200000
214.131060 0.600000
231.138290 100.000000
232.138280 11.900000
232.153090 1.800000
233.134690 1.600000
233.147090 1.000000
249.148380 22.700000

NAME: Atropine
SCANNUMBER: RIKEN_MONA_69
PRECURSORMZ: 290.175070
PRECURSORTYPE: [M+H]+
IONMODE: Positive
SPECTRUMTYPE: MS2
COLLISIONENERGY: 10 eV
FORMULA: C17H23NO3
SMILES: CN1C2CCC1CC(OC(=O)C(CO)c1ccccc1)C2
INCHI: InChI=1S/C17H23NO3/c1-18-13-7-8-14(18)10-15(9-13)21-17(20)16(11-19)12-5-3-2-4-6-12/h2-6,13-16,19H,7-11H2,1H3
INCHIKEY: RKUNBYITZUJHSG-UHFFFAOYSA-N
RETENTIONTIME: 3.597383
COMMENT: dataset=RIKEN_MONA; source_file=external_data/raw_libraries/RIKEN_MONA.xlsx; source_row=69; RT_sec=215.84298
Num Peaks: 10
91.054920 1.200000
93.070660 6.900000
94.073900 0.700000
121.068150 0.500000
124.112470 21.300000
125.116630 2.800000
142.121050 0.900000
260.165100 0.700000
290.177030 100.000000
290.225590 3.200000

NAME: Baicalein
SCANNUMBER: RIKEN_MONA_70
PRECURSORMZ: 271.060100
PRECURSORTYPE: [M+H]+
IONMODE: Positive
SPECTRUMTYPE: MS2
COLLISIONENERGY: 10 eV
FORMULA: C15H10O5
SMILES: O=c1cc(-c2ccccc2)oc2cc(O)c(O)c(O)c12
INCHI: InChI=1S/C15H10O5/c16-9-6-11(8-4-2-1-3-5-8)20-12-7-10(17)14(18)15(19)13(9)12/h1-7,17-19H
INCHIKEY: FXNFHKRTJBSTCS-UHFFFAOYSA-N
RETENTIONTIME: 6.399233
COMMENT: dataset=RIKEN_MONA; source_file=external_data/raw_libraries/RIKEN_MONA.xlsx; source_row=70; RT_sec=383.95398
Num Peaks: 16
95.011470 1.800000
103.053540 1.300000
103.057680 0.700000
123.007750 10.900000
124.007800 0.600000
151.007080 0.700000
169.010190 1.200000
197.060460 0.600000
225.060180 0.500000
241.044240 0.600000
242.051010 0.800000
253.048900 1.900000
270.046880 2.200000
271.021610 0.700000
271.060550 100.000000
271.108890 0.900000

NAME: Benzyl glucosinolate
SCANNUMBER: RIKEN_MONA_71
PRECURSORMZ: 408.042847
PRECURSORTYPE: [M-H]-
IONMODE: Negative
SPECTRUMTYPE: MS2
COLLISIONENERGY: 10 eV
FORMULA: C14H19NO9S2
SMILES: O=S(=O)(O)ON=C(Cc1ccccc1)SC1OC(CO)C(O)C(O)C1O
INCHI: InChI=1S/C14H19NO9S2/c16-7-9-11(17)12(18)13(19)14(23-9)25-10(15-24-26(20,21)22)6-8-4-2-1-3-5-8/h1-5,9,11-14,16-19H,6-7H2,(H,20,21,22)
INCHIKEY: QQGLQYQXUKHWPX-UHFFFAOYSA-N
RETENTIONTIME: 2.827433
COMMENT: dataset=RIKEN_MONA; source_file=external_data/raw_libraries/RIKEN_MONA.xlsx; source_row=71; RT_sec=169.64598
Num Peaks: 32
74.990350 8.200000
79.957830 3.100000
80.964090 1.800000
85.028360 0.600000
95.952100 17.000000
96.959810 67.200000
97.956280 0.500000
98.952950 3.300000
98.959080 1.600000
101.021820 0.600000
111.931120 1.200000
119.032660 1.300000
127.922780 0.700000
132.044250 1.400000
138.968200 1.500000
145.054530 0.800000
166.032470 13.300000
168.033740 1.000000
195.031490 2.600000
195.041930 0.800000
211.998980 2.700000
212.007860 1.300000
214.987760 1.500000
227.019490 0.600000
230.014370 0.700000
241.002090 5.100000
241.014130 0.900000
259.013890 7.000000
260.014890 1.200000
274.989380 1.400000
301.788330 0.600000
408.042510 100.000000

NAME: Bergenin
SCANNUMBER: RIKEN_MONA_72
PRECURSORMZ: 329.086708
PRECURSORTYPE: [M+H]+
IONMODE: Positive
SPECTRUMTYPE: MS2
COLLISIONENERGY: 10 eV
FORMULA: C14H16O9
SMILES: COc1c(O)cc2c(c1O)[C@@H]1O[C@H](CO)[C@@H](O)[C@H](O)[C@H]1OC2=O
INCHI: InChI=1S/C14H16O9/c1-21-11-5(16)2-4-7(9(11)18)12-13(23-14(4)20)10(19)8(17)6(3-15)22-12/h2,6,8,10,12-13,15-19H,3H2,1H3/t6-,8-,10+,12+,13-/m1/s1
INCHIKEY: YWJXCIXBAKGUKZ-HJJNZUOJSA-N
RETENTIONTIME: 2.859100
COMMENT: dataset=RIKEN_MONA; source_file=external_data/raw_libraries/RIKEN_MONA.xlsx; source_row=72; RT_sec=171.546
Num Peaks: 200
77.041420 9.400000
80.023880 3.000000
85.029340 2.500000
86.031600 3.500000
91.049700 3.500000
93.022480 2.700000
103.040000 5.000000
110.041010 2.100000
111.045660 6.000000
119.048750 9.000000
119.069320 2.900000
123.051930 2.100000
127.040230 2.700000
130.042180 2.600000
131.048080 10.300000
133.020480 4.900000
133.034470 3.700000
133.060580 5.400000
134.037310 3.000000
134.070300 2.400000
137.062870 2.100000
138.025880 6.400000
138.032880 6.700000
144.030030 3.500000
146.028270 2.500000
146.037350 2.200000
147.043730 11.800000
148.015580 4.000000
150.023680 3.100000
151.038060 20.400000
152.013340 7.600000
152.042510 2.600000
153.046400 3.100000
153.054090 2.400000
156.051040 2.400000
159.042450 8.900000
161.059920 2.400000
162.017110 2.900000
162.028870 7.400000
162.036760 2.200000
163.035860 4.700000
164.040760 3.000000
164.047300 2.600000
165.021000 2.600000
165.047850 2.200000
165.974040 2.100000
166.027010 10.200000
166.068680 2.900000
167.040620 2.900000
170.811950 2.400000
174.038470 3.700000
175.026760 2.900000
175.035890 2.200000
175.046940 7.500000
176.009690 2.100000
176.050370 2.100000
177.021000 23.900000
177.047780 2.600000
177.064270 3.700000
177.983400 2.500000
178.028500 13.200000
178.055300 2.200000
179.014220 4.000000
179.033620 7.700000
179.072490 2.200000
179.998540 2.400000
180.009230 10.200000
180.040330 8.500000
181.035060 3.000000
181.054000 41.500000
182.020080 2.200000
187.036510 7.000000
187.548840 2.400000
189.055890 3.100000
190.028050 6.700000
190.057820 2.200000
191.014220 5.600000
191.034580 15.800000
191.072660 3.200000
192.028500 2.100000
192.037400 6.100000
192.042570 2.700000
193.052630 29.100000
194.013960 3.100000
194.024190 8.100000
194.061290 2.700000
195.022490 13.700000
195.033280 16.600000
195.074650 2.100000
197.030690 2.200000
197.043730 19.800000
197.052190 12.300000
199.050110 5.900000
200.021470 2.600000
201.035540 2.100000
201.788510 2.200000
203.038650 4.400000
204.038410 9.600000
205.045470 27.600000
206.013210 2.400000
206.024170 11.300000
206.068850 2.900000
207.022490 5.900000
207.054310 2.500000
207.082000 2.500000
208.030580 3.700000
208.038670 12.800000
208.047490 2.500000
208.067310 2.200000
209.024920 3.600000
209.045040 100.000000
209.312230 3.000000
210.046170 8.400000
210.056870 3.900000
210.154100 2.100000
211.018390 2.100000
211.030300 2.400000
211.446790 2.100000
215.031020 4.600000
215.042020 6.700000
216.045440 4.400000
216.053910 2.100000
217.026750 5.600000
217.042360 2.200000
218.025700 2.500000
218.068560 2.200000
219.017760 2.100000
219.036610 2.200000
219.053700 6.500000
219.060930 9.600000
219.069560 10.700000
220.033430 2.200000
220.042390 2.600000
220.063580 4.000000
221.047270 45.900000
221.897770 2.100000
222.042420 2.500000
222.051620 3.500000
223.023960 8.500000
223.034390 5.200000
223.056700 5.200000
224.032520 3.000000
225.046250 2.700000
227.029920 2.100000
227.040190 6.600000
229.025100 3.500000
229.044540 2.500000
229.052720 3.000000
229.063320 5.000000
230.027650 2.500000
231.073900 3.600000
232.015000 5.400000
232.027660 2.100000
233.002490 4.500000
233.045970 25.300000
233.058200 7.600000
235.057770 11.100000
236.053280 2.400000
236.063280 3.600000
237.032360 4.100000
242.023210 3.000000
245.031050 2.400000
246.055760 2.500000
247.057450 44.400000
248.058090 2.900000
249.028470 3.200000
251.017290 2.500000
251.050810 60.500000
251.060620 34.300000
252.060750 2.700000
253.058900 4.100000
257.041020 12.200000
257.058290 4.900000
258.044890 3.500000
260.025600 5.200000
260.036990 2.400000
263.002010 2.100000
263.054110 74.300000
263.068390 13.800000
263.918760 3.000000
264.052490 9.500000
264.078340 2.100000
272.878600 3.700000
274.982700 3.500000
275.049380 30.500000
275.062530 20.800000
276.052340 6.100000
276.067140 11.100000
276.995210 2.400000
281.061340 14.800000
282.062620 5.600000
293.057710 22.300000
293.069820 36.200000
294.071440 8.400000
311.067810 18.300000
311.081820 12.500000
312.084320 2.100000
329.056300 6.100000
329.081270 50.900000
329.096920 13.500000

NAME: Biochanin A
SCANNUMBER: RIKEN_MONA_73
PRECURSORMZ: 285.075750
PRECURSORTYPE: [M+H]+
IONMODE: Positive
SPECTRUMTYPE: MS2
COLLISIONENERGY: 10 eV
FORMULA: C16H12O5
SMILES: COc1ccc(-c2coc3cc(O)cc(O)c3c2=O)cc1
INCHI: InChI=1S/C16H12O5/c1-20-11-4-2-9(3-5-11)12-8-21-14-7-10(17)6-13(18)15(14)16(12)19/h2-8,17-18H,1H3
INCHIKEY: WUADCCWRTIWANL-UHFFFAOYSA-N
RETENTIONTIME: 7.634800
COMMENT: dataset=RIKEN_MONA; source_file=external_data/raw_libraries/RIKEN_MONA.xlsx; source_row=73; RT_sec=458.088
Num Peaks: 31
96.019580 0.600000
118.041230 1.500000
123.042080 1.000000
124.013980 1.300000
149.023360 1.200000
152.009410 4.700000
153.015290 1.400000
158.035280 1.700000
179.035160 1.100000
185.056000 0.600000
186.069930 0.800000
197.060070 1.500000
213.051800 5.200000
213.061650 1.500000
214.060120 1.400000
225.055880 0.700000
229.088530 2.300000
241.053890 1.500000
242.056150 4.700000
243.060350 0.700000
252.041400 0.600000
253.047000 3.500000
254.047900 0.500000
269.036740 1.400000
269.046510 3.700000
270.044310 1.700000
270.054200 4.800000
271.048000 0.600000
285.027770 0.900000
285.075230 100.000000
285.125370 1.600000

NAME: Biochanin-7-O-glucoside
SCANNUMBER: RIKEN_MONA_74
PRECURSORMZ: 447.128573
PRECURSORTYPE: [M+H]+
IONMODE: Positive
SPECTRUMTYPE: MS2
COLLISIONENERGY: 10 eV
FORMULA: C22H22O10
SMILES: COc1ccc(-c2coc3cc(O[C@@H]4O[C@H](CO)[C@@H](O)[C@H](O)[C@H]4O)cc(O)c3c2=O)cc1
INCHI: InChI=1S/C22H22O10/c1-29-11-4-2-10(3-5-11)13-9-30-15-7-12(6-14(24)17(15)18(13)25)31-22-21(28)20(27)19(26)16(8-23)32-22/h2-7,9,16,19-24,26-28H,8H2,1H3/t16-,19-,20+,21-,22-/m1/s1
INCHIKEY: LFEUICHQZGNOHD-RECXWPGBSA-N
RETENTIONTIME: 5.732750
COMMENT: dataset=RIKEN_MONA; source_file=external_data/raw_libraries/RIKEN_MONA.xlsx; source_row=74; RT_sec=343.965
Num Peaks: 18
123.045350 0.700000
152.010560 2.400000
153.020400 0.600000
229.078920 0.600000
229.092220 1.100000
242.046540 0.600000
253.041230 0.600000
253.050290 1.300000
269.050780 0.700000
270.048490 1.900000
270.060790 1.000000
285.039250 1.600000
285.076570 100.000000
285.122920 1.000000
286.056640 0.700000
286.079320 17.600000
287.085110 1.600000
447.127350 14.000000

NAME: Boldine
SCANNUMBER: RIKEN_MONA_75
PRECURSORMZ: 328.154335
PRECURSORTYPE: [M+H]+
IONMODE: Positive
SPECTRUMTYPE: MS2
COLLISIONENERGY: 10 eV
FORMULA: C19H21NO4
SMILES: COc1cc2c(cc1O)C[C@H]1c3c(cc(O)c(OC)c3-2)CCN1C
INCHI: InChI=1S/C19H21NO4/c1-20-5-4-10-7-15(22)19(24-3)18-12-9-16(23-2)14(21)8-11(12)6-13(20)17(10)18/h7-9,13,21-22H,4-6H2,1-3H3/t13-/m0/s1
INCHIKEY: LZJRNLRASBVRRX-ZDUSSCGKSA-N
RETENTIONTIME: 3.353133
COMMENT: dataset=RIKEN_MONA; source_file=external_data/raw_libraries/RIKEN_MONA.xlsx; source_row=75; RT_sec=201.18798
Num Peaks: 59
165.066470 0.700000
165.075610 1.000000
166.076510 1.300000
166.088580 0.500000
167.081440 0.500000
176.062970 2.200000
177.069820 12.400000
178.073580 1.700000
179.088620 0.900000
183.074750 0.700000
190.078520 0.600000
193.067120 0.800000
194.074100 10.000000
195.078380 1.500000
195.084550 0.600000
204.058650 0.600000
205.066060 23.500000
206.069240 5.300000
209.096180 0.600000
211.075650 2.400000
221.056870 1.500000
221.064450 1.400000
222.067660 15.200000
223.068620 1.600000
223.076200 1.700000
225.090130 1.000000
233.060970 7.100000
234.061920 0.800000
234.070560 1.300000
237.092880 43.000000
238.066590 0.600000
238.095580 5.400000
239.068470 5.000000
239.097670 1.000000
240.067580 0.600000
250.061780 3.300000
251.072530 2.200000
252.084090 0.700000
253.090560 1.600000
254.091050 1.000000
254.099380 1.100000
255.107280 0.700000
265.086880 73.400000
265.132570 0.900000
266.091220 16.600000
267.065580 3.600000
267.079500 1.500000
267.099730 1.200000
268.072050 1.300000
268.100860 0.800000
282.092380 6.900000
283.086460 1.000000
297.112980 42.100000
298.097410 1.200000
298.116730 9.800000
299.121370 0.500000
328.107360 0.700000
328.152860 100.000000
328.202730 1.500000

NAME: Bufalin
SCANNUMBER: RIKEN_MONA_76
PRECURSORMZ: 387.252986
PRECURSORTYPE: [M+H]+
IONMODE: Positive
SPECTRUMTYPE: MS2
COLLISIONENERGY: 10 eV
FORMULA: C24H34O4
SMILES: C[C@]12CC[C@H](O)C[C@H]1CC[C@@H]1[C@@H]2CC[C@]2(C)[C@@H](c3ccc(=O)oc3)CC[C@]12O
INCHI: InChI=1S/C24H34O4/c1-22-10-7-17(25)13-16(22)4-5-20-19(22)8-11-23(2)18(9-12-24(20,23)27)15-3-6-21(26)28-14-15/h3,6,14,16-20,25,27H,4-5,7-13H2,1-2H3/t16-,17+,18-,19+,20-,22+,23-,24+/m1/s1
INCHIKEY: QEEBRPGZBVVINN-BMPKRDENSA-N
RETENTIONTIME: 6.990850
COMMENT: dataset=RIKEN_MONA; source_file=external_data/raw_libraries/RIKEN_MONA.xlsx; source_row=76; RT_sec=419.451
Num Peaks: 45
93.068270 0.600000
95.086940 0.600000
105.070380 1.300000
107.085620 2.000000
109.102010 0.900000
119.082590 0.500000
121.100920 1.300000
131.087270 1.000000
133.094540 0.500000
133.104920 1.300000
135.115800 1.200000
136.122210 0.500000
143.084030 0.800000
145.098110 0.800000
145.104060 1.100000
147.116850 2.100000
149.134350 1.000000
155.082760 0.500000
157.099950 0.600000
159.117460 2.400000
161.095960 0.800000
161.131350 2.000000
173.131030 1.200000
175.144640 0.800000
183.115970 0.700000
185.130490 0.700000
187.149770 0.700000
195.112500 0.600000
197.130920 0.900000
199.152070 0.600000
243.138780 0.700000
255.203020 1.700000
255.214970 2.500000
256.216190 1.200000
257.226900 0.600000
269.148280 0.700000
305.224880 1.100000
315.209870 0.500000
333.230190 0.700000
351.233800 4.800000
352.231930 1.100000
352.247410 0.500000
369.241970 3.300000
387.254090 100.000000
387.311370 1.900000

NAME: Caffeyl alcohol
SCANNUMBER: RIKEN_MONA_77
PRECURSORMZ: 165.055718
PRECURSORTYPE: [M-H]-
IONMODE: Negative
SPECTRUMTYPE: MS2
COLLISIONENERGY: 10 eV
FORMULA: C9H10O3
SMILES: OC/C=C/c1ccc(O)c(O)c1
INCHI: InChI=1S/C9H10O3/c10-5-1-2-7-3-4-8(11)9(12)6-7/h1-4,6,10-12H,5H2/b2-1+
INCHIKEY: ZCKDCRKBURQZPT-OWOJBTEDSA-N
RETENTIONTIME: 3.175100
COMMENT: dataset=RIKEN_MONA; source_file=external_data/raw_libraries/RIKEN_MONA.xlsx; source_row=77; RT_sec=190.506
Num Peaks: 16
70.932320 1.200000
101.037850 21.700000
117.587660 1.600000
119.048100 6.400000
129.033040 73.100000
130.039540 6.700000
131.047040 1.400000
136.042020 1.400000
146.035320 5.300000
146.049960 2.000000
147.045010 100.000000
148.045580 6.500000
148.051350 7.900000
149.054790 1.300000
163.041400 2.800000
165.054240 81.600000

NAME: Calycanthine
SCANNUMBER: RIKEN_MONA_78
PRECURSORMZ: 347.223023
PRECURSORTYPE: [M+H]+
IONMODE: Positive
SPECTRUMTYPE: MS2
COLLISIONENERGY: 10 eV
FORMULA: C22H26N4
SMILES: CN1CC[C@]23c4ccccc4N[C@H]1[C@]21CCN(C)[C@H]3Nc2ccccc21
INCHI: InChI=1S/C22H26N4/c1-25-13-11-22-16-8-4-5-9-17(16)23-19(25)21(22)12-14-26(2)20(22)24-18-10-6-3-7-15(18)21/h3-10,19-20,23-24H,11-14H2,1-2H3/t19-,20-,21-,22-/m1/s1
INCHIKEY: XSYCDVWYEVUDKQ-GXRSIYKFSA-N
RETENTIONTIME: 2.574817
COMMENT: dataset=RIKEN_MONA; source_file=external_data/raw_libraries/RIKEN_MONA.xlsx; source_row=78; RT_sec=154.489019999999
Num Peaks: 137
96.084340 1.000000
120.072880 1.400000
120.081500 0.800000
130.064320 9.200000
130.477520 0.700000
131.069350 1.600000
132.062390 1.500000
132.074830 4.700000
132.085210 7.500000
133.077760 0.700000
139.528310 1.000000
140.045410 0.800000
142.057500 1.200000
144.081450 8.400000
145.087830 0.600000
156.073240 2.000000
156.082760 1.000000
158.080200 0.700000
159.084980 1.300000
160.098110 0.700000
166.381700 1.000000
167.051030 1.000000
168.081970 7.800000
168.092730 0.700000
170.092930 1.200000
172.089780 0.600000
172.097720 1.200000
173.100800 7.100000
173.110210 7.500000
174.103390 1.300000
174.111500 2.000000
175.123550 2.000000
180.081280 3.400000
181.086900 0.600000
183.083240 1.100000
183.094820 1.100000
183.102340 1.200000
185.095790 0.600000
187.120760 3.100000
188.131180 1.100000
193.114260 0.900000
197.113530 0.700000
199.107560 0.700000
199.123170 2.000000
206.076340 1.000000
207.073010 1.700000
207.100490 0.900000
208.113740 1.200000
209.115710 0.700000
210.117160 1.000000
211.102870 0.900000
211.122410 12.900000
215.084750 0.700000
215.154950 0.700000
217.080800 0.900000
217.093640 1.200000
218.077560 0.800000
219.087910 0.800000
219.097790 0.800000
224.130360 0.800000
230.087460 0.800000
231.103470 0.600000
232.090650 3.800000
232.105930 8.100000
233.095550 0.800000
233.108570 10.400000
233.118120 6.500000
236.133820 0.800000
239.359450 0.700000
242.090240 0.700000
244.090760 1.000000
244.102650 1.300000
244.139250 1.500000
245.089370 0.600000
245.111820 0.700000
246.293140 1.100000
247.102860 1.700000
247.113220 3.200000
247.133380 8.200000
248.120190 3.000000
248.137310 1.100000
253.043410 0.700000
254.108090 1.300000
254.157780 0.700000
255.096080 1.800000
256.063510 1.000000
256.092220 0.600000
256.118870 0.600000
257.090940 1.200000
257.104980 2.300000
257.111850 0.900000
257.290590 0.700000
258.114440 2.500000
259.105040 1.900000
259.120090 7.800000
259.129000 7.500000
260.117800 0.700000
260.129550 0.600000
263.093440 1.200000
269.115390 2.300000
270.102870 1.400000
270.117740 0.800000
271.114560 1.000000
272.456630 0.700000
273.065640 1.300000
273.102720 1.300000
273.119080 0.700000
273.136170 4.100000
274.125180 0.700000
274.149170 1.700000
283.120790 0.900000
285.140010 14.200000
285.167940 0.700000
286.085170 0.900000
286.099980 0.600000
286.143310 8.000000
286.314790 0.700000
287.149200 2.500000
288.159240 1.500000
288.458400 0.600000
290.161900 5.500000
290.172520 6.600000
290.693910 0.700000
291.162810 0.800000
304.184600 6.400000
316.179380 29.100000
316.193080 10.200000
317.173770 1.500000
317.187530 6.100000
317.198120 2.500000
319.183960 1.200000
331.938320 0.600000
346.147490 0.700000
346.210780 1.700000
347.199490 2.300000
347.222870 100.000000
347.383910 0.600000

NAME: Captopril
SCANNUMBER: RIKEN_MONA_79
PRECURSORMZ: 218.084541
PRECURSORTYPE: [M+H]+
IONMODE: Positive
SPECTRUMTYPE: MS2
COLLISIONENERGY: 10 eV
FORMULA: C9H15NO3S
SMILES: C[C@H](CS)C(=O)N1CCC[C@H]1C(=O)O
INCHI: InChI=1S/C9H15NO3S/c1-6(5-14)8(11)10-4-2-3-7(10)9(12)13/h6-7,14H,2-5H2,1H3,(H,12,13)/t6-,7+/m1/s1
INCHIKEY: FAKRSMQSSFJEIM-RQJHMYQMSA-N
RETENTIONTIME: 4.051100
COMMENT: dataset=RIKEN_MONA; source_file=external_data/raw_libraries/RIKEN_MONA.xlsx; source_row=79; RT_sec=243.066
Num Peaks: 26
70.054360 3.300000
70.065760 30.900000
70.187100 1.900000
71.058960 1.400000
71.070950 3.300000
75.025900 12.200000
75.033680 1.700000
76.030930 1.800000
103.020220 1.600000
116.045720 1.500000
116.071300 100.000000
117.073060 1.400000
172.062330 1.200000
172.078780 27.600000
173.078630 2.300000
173.086810 2.900000
173.484590 1.400000
174.070370 2.200000
174.076720 1.600000
174.091510 1.600000
175.079210 1.700000
190.023530 4.100000
200.071490 6.100000
201.071180 1.500000
218.085330 84.700000
218.170820 1.600000

NAME: Carbazochrome sulfonate
SCANNUMBER: RIKEN_MONA_80
PRECURSORMZ: 301.060117
PRECURSORTYPE: [M+H]+
IONMODE: Positive
SPECTRUMTYPE: MS2
COLLISIONENERGY: 10 eV
FORMULA: C10H12N4O5S
SMILES: CN1C2=CC(=O)/C(=N\NC(=N)O)C=C2CC1S(=O)(=O)O
INCHI: InChI=1S/C10H12N4O5S/c1-14-7-4-8(15)6(12-13-10(11)16)2-5(7)3-9(14)20(17,18)19/h2,4,9H,3H2,1H3,(H3,11,13,16)(H,17,18,19)/b12-6-
INCHIKEY: OZCACMPSTYQSMM-SDQBBNPISA-N
RETENTIONTIME: 2.693717
COMMENT: dataset=RIKEN_MONA; source_file=external_data/raw_libraries/RIKEN_MONA.xlsx; source_row=80; RT_sec=161.62302
Num Peaks: 25
121.632690 4.600000
130.065110 2.200000
132.046130 2.800000
132.069890 7.600000
133.051100 1.900000
146.052290 2.100000
146.064530 10.700000
147.050690 2.400000
147.068500 100.000000
148.048130 4.000000
148.067320 2.400000
148.077030 13.300000
177.084750 5.000000
203.073000 8.000000
228.026500 1.800000
256.036740 5.400000
256.054260 7.000000
257.052190 3.400000
284.036040 67.000000
284.046200 14.500000
285.040920 19.700000
286.032560 2.900000
300.014400 2.500000
301.060270 7.100000
301.075160 1.800000

NAME: Catechin
SCANNUMBER: RIKEN_MONA_81
PRECURSORMZ: 291.086315
PRECURSORTYPE: [M+H]+
IONMODE: Positive
SPECTRUMTYPE: MS2
COLLISIONENERGY: 10 eV
FORMULA: C15H14O6
SMILES: Oc1cc(O)c2c(c1)O[C@H](c1ccc(O)c(O)c1)[C@@H](O)C2
INCHI: InChI=1S/C15H14O6/c16-8-4-11(18)9-6-13(20)15(21-14(9)5-8)7-1-2-10(17)12(19)3-7/h1-5,13,15-20H,6H2/t13-,15+/m0/s1
INCHIKEY: PFTAWBLQPZVEMU-DZGCQCFKSA-N
RETENTIONTIME: 3.128750
COMMENT: dataset=RIKEN_MONA; source_file=external_data/raw_libraries/RIKEN_MONA.xlsx; source_row=81; RT_sec=187.725
Num Peaks: 49
68.993480 5.700000
70.836900 5.200000
105.030220 3.700000
111.041470 7.000000
115.047650 5.600000
119.049500 14.500000
120.049630 3.700000
123.029850 4.400000
123.042560 100.000000
123.117340 3.000000
124.038600 3.500000
125.056950 4.400000
127.041710 4.200000
129.129730 5.100000
137.021030 6.400000
139.025970 7.100000
139.039090 94.900000
140.019170 4.500000
147.022080 9.900000
147.039760 16.000000
147.049410 17.200000
147.121730 3.300000
147.480940 5.700000
148.041370 3.800000
151.038620 12.200000
152.043670 5.600000
157.061430 4.400000
160.046480 3.000000
161.047390 4.500000
161.055850 5.700000
161.065670 8.200000
163.032180 5.400000
163.042390 12.900000
165.050090 22.500000
166.061720 13.100000
167.591250 3.000000
169.051640 4.500000
178.822360 4.500000
181.051210 3.800000
189.044950 5.400000
201.042860 4.900000
205.093310 3.300000
207.046880 10.600000
207.062530 12.700000
213.054670 3.000000
273.072510 9.200000
279.621980 4.500000
291.035250 3.100000
291.081600 60.300000

NAME: Catechol
SCANNUMBER: RIKEN_MONA_82
PRECURSORMZ: 109.029503
PRECURSORTYPE: [M-H]-
IONMODE: Negative
SPECTRUMTYPE: MS2
COLLISIONENERGY: 10 eV
FORMULA: C6H6O2
SMILES: Oc1ccccc1O
INCHI: InChI=1S/C6H6O2/c7-5-3-1-2-4-6(5)8/h1-4,7-8H
INCHIKEY: YCIMNLLNPGFGHC-UHFFFAOYSA-N
RETENTIONTIME: 2.672717
COMMENT: dataset=RIKEN_MONA; source_file=external_data/raw_libraries/RIKEN_MONA.xlsx; source_row=82; RT_sec=160.36302
Num Peaks: 3
91.016450 10.200000
108.633190 10.200000
109.027300 100.000000

NAME: Catharanthine
SCANNUMBER: RIKEN_MONA_83
PRECURSORMZ: 337.191055
PRECURSORTYPE: [M+H]+
IONMODE: Positive
SPECTRUMTYPE: MS2
COLLISIONENERGY: 10 eV
FORMULA: C21H24N2O2
SMILES: CCC1=C[C@@H]2CN3CCc4c([nH]c5ccccc45)[C@@](C(=O)OC)(C2)[C@@H]13
INCHI: InChI=1S/C21H24N2O2/c1-3-14-10-13-11-21(20(24)25-2)18-16(8-9-23(12-13)19(14)21)15-6-4-5-7-17(15)22-18/h4-7,10,13,19,22H,3,8-9,11-12H2,1-2H3/t13-,19+,21-/m0/s1
INCHIKEY: CMKFQVZJOWHHDV-NQZBTDCJSA-N
RETENTIONTIME: 5.038217
COMMENT: dataset=RIKEN_MONA; source_file=external_data/raw_libraries/RIKEN_MONA.xlsx; source_row=83; RT_sec=302.29302
Num Peaks: 25
59.013920 0.500000
93.063970 1.800000
93.070840 8.400000
94.073530 1.000000
117.070210 0.800000
133.065700 2.900000
143.072190 1.100000
144.046860 0.700000
144.081270 100.000000
144.113950 0.800000
145.084270 12.500000
146.088490 1.100000
165.090840 9.400000
166.094970 0.900000
168.092580 0.500000
173.106160 12.800000
174.111280 1.500000
218.099380 0.500000
233.114490 0.600000
235.130340 0.600000
248.136750 0.700000
337.186340 58.100000
337.200230 41.600000
337.238280 1.500000
337.254030 0.600000

NAME: Cephaeline
SCANNUMBER: RIKEN_MONA_84
PRECURSORMZ: 467.290434
PRECURSORTYPE: [M+H]+
IONMODE: Positive
SPECTRUMTYPE: MS2
COLLISIONENERGY: 10 eV
FORMULA: C28H38N2O4
SMILES: CC[C@H]1CN2CCc3cc(OC)c(OC)cc3[C@@H]2C[C@@H]1C[C@H]1NCCc2cc(O)c(OC)cc21
INCHI: InChI=1S/C28H38N2O4/c1-5-17-16-30-9-7-19-13-27(33-3)28(34-4)15-22(19)24(30)11-20(17)10-23-21-14-26(32-2)25(31)12-18(21)6-8-29-23/h12-15,17,20,23-24,29,31H,5-11,16H2,1-4H3/t17-,20-,23+,24-/m0/s1
INCHIKEY: DTGZHCFJNDAHEN-OZEXIGSWSA-N
RETENTIONTIME: 2.977767
COMMENT: dataset=RIKEN_MONA; source_file=external_data/raw_libraries/RIKEN_MONA.xlsx; source_row=84; RT_sec=178.66602
Num Peaks: 81
95.077260 0.700000
104.058670 0.500000
131.054790 0.600000
151.082320 0.500000
158.110060 0.700000
160.085270 1.400000
163.066650 0.500000
163.080260 0.700000
165.074660 0.600000
165.101060 0.600000
176.092250 0.900000
177.079360 0.800000
177.096150 0.500000
179.100300 1.100000
180.101790 0.600000
185.901780 0.700000
189.094390 0.800000
190.080050 1.200000
190.085770 0.500000
192.105270 1.600000
199.147450 0.500000
202.109530 0.600000
203.104430 0.600000
205.106860 0.500000
205.117600 1.400000
206.106630 0.500000
211.107190 0.500000
214.118320 0.500000
220.135090 1.300000
229.106450 0.700000
231.059970 0.700000
244.126630 0.900000
246.119800 0.700000
246.135280 2.300000
246.152390 13.800000
247.150470 1.400000
247.165530 1.200000
248.154160 0.500000
249.164280 0.600000
254.128600 0.500000
256.149380 0.600000
257.094450 0.500000
258.154050 2.000000
259.152070 0.700000
259.163970 1.600000
260.156950 1.200000
262.164520 0.500000
270.146760 0.700000
270.189730 0.600000
272.156950 3.100000
272.170870 3.800000
273.159790 1.100000
273.176270 1.200000
274.163910 1.100000
274.181210 4.800000
274.197810 0.500000
285.168610 0.800000
301.199340 0.600000
302.733340 0.500000
303.202820 0.600000
379.142550 0.500000
379.200710 0.900000
422.236150 3.000000
435.228060 0.600000
439.256290 0.700000
439.277920 0.600000
449.253300 0.500000
450.184230 0.700000
450.258180 3.900000
450.280210 1.300000
451.257170 0.700000
451.269780 1.800000
465.266660 8.000000
465.290920 3.400000
466.280980 8.200000
466.300990 2.000000
466.993440 0.500000
467.206480 1.000000
467.234800 0.800000
467.292790 100.000000
467.348790 0.500000

NAME: Chalcone
SCANNUMBER: RIKEN_MONA_85
PRECURSORMZ: 209.096091
PRECURSORTYPE: [M+H]+
IONMODE: Positive
SPECTRUMTYPE: MS2
COLLISIONENERGY: 10 eV
FORMULA: C15H12O
SMILES: O=C(/C=C/c1ccccc1)c1ccccc1
INCHI: InChI=1S/C15H12O/c16-15(14-9-5-2-6-10-14)12-11-13-7-3-1-4-8-13/h1-12H/b12-11+
INCHIKEY: DQFBYFPFKXHELB-VAWYXSNFSA-N
RETENTIONTIME: 9.019167
COMMENT: dataset=RIKEN_MONA; source_file=external_data/raw_libraries/RIKEN_MONA.xlsx; source_row=85; RT_sec=541.150019999999
Num Peaks: 27
77.033890 0.700000
77.038830 0.700000
77.044770 0.700000
79.058260 0.700000
103.055050 26.600000
104.052010 0.900000
104.061670 2.100000
105.034320 12.600000
106.033210 0.700000
107.046040 0.900000
107.054480 0.600000
131.049700 62.200000
132.052310 6.300000
133.054060 1.100000
165.067980 0.700000
166.075820 0.600000
181.103390 2.400000
182.105680 0.500000
191.085830 6.400000
192.086720 0.600000
194.073620 0.900000
207.074360 0.900000
207.094530 0.800000
208.085170 1.300000
209.044830 0.600000
209.095960 100.000000
209.135540 1.900000

NAME: Chelerythrine
SCANNUMBER: RIKEN_MONA_86
PRECURSORMZ: 348.122486
PRECURSORTYPE: [M]+
IONMODE: Positive
SPECTRUMTYPE: MS2
COLLISIONENERGY: 10 eV
FORMULA: [C21H18NO4]+
SMILES: COc1ccc2c(c[n+](C)c3c4cc5c(cc4ccc23)OCO5)c1OC
INCHI: InChI=1S/C21H18NO4/c1-22-10-16-13(6-7-17(23-2)21(16)24-3)14-5-4-12-8-18-19(26-11-25-18)9-15(12)20(14)22/h4-10H,11H2,1-3H3/q+1
INCHIKEY: LLEJIEBFSOEYIV-UHFFFAOYSA-N
RETENTIONTIME: 5.302450
COMMENT: dataset=RIKEN_MONA; source_file=external_data/raw_libraries/RIKEN_MONA.xlsx; source_row=86; RT_sec=318.147
Num Peaks: 39
232.074950 1.000000
246.087710 1.700000
246.100940 0.800000
260.077880 1.100000
272.070400 0.600000
274.093750 0.900000
275.069430 0.600000
275.098790 0.500000
287.095090 0.900000
287.105010 0.500000
288.071660 0.600000
288.108520 0.700000
290.082340 11.200000
291.074830 0.900000
291.086700 1.200000
291.096560 0.800000
303.085630 1.000000
304.097530 16.300000
305.101780 4.400000
314.078770 1.100000
315.089450 2.600000
316.063840 1.700000
316.100770 3.800000
317.065060 1.100000
317.103450 0.800000
318.076140 7.900000
318.097500 0.700000
319.073390 0.500000
319.084350 1.600000
330.077760 4.400000
330.088230 1.800000
331.086670 1.500000
332.092800 27.200000
333.070310 0.800000
333.099520 17.000000
334.102910 3.500000
348.076870 0.800000
348.123440 100.000000
348.179230 1.500000

NAME: Chikusetsusaponin IV
SCANNUMBER: RIKEN_MONA_87
PRECURSORMZ: 925.480239
PRECURSORTYPE: [M-H]-
IONMODE: Negative
SPECTRUMTYPE: MS2
COLLISIONENERGY: 10 eV
FORMULA: C47H74O18
SMILES: CC1(C)CCC2(C(=O)OC3OC(CO)C(O)C(O)C3O)CCC3(C)C(=CCC4C5(C)CCC(OC6OC(C(=O)O)C(OC7OC(CO)C(O)C7O)C(O)C6O)C(C)(C)C5CCC43C)C2C1
INCHI: InChI=1S/C47H74O18/c1-42(2)14-16-47(41(59)65-39-33(55)30(52)28(50)23(19-48)61-39)17-15-45(6)21(22(47)18-42)8-9-26-44(5)12-11-27(43(3,4)25(44)10-13-46(26,45)7)62-40-34(56)31(53)35(36(64-40)37(57)58)63-38-32(54)29(51)24(20-49)60-38/h8,22-36,38-40,48-56H,9-20H2,1-7H3,(H,57,58)
INCHIKEY: KQSFNXMDCOFFGW-UHFFFAOYSA-N
RETENTIONTIME: 6.386483
COMMENT: dataset=RIKEN_MONA; source_file=external_data/raw_libraries/RIKEN_MONA.xlsx; source_row=87; RT_sec=383.18898
Num Peaks: 13
89.023840 2.400000
131.035580 0.800000
149.044950 1.300000
509.353880 0.600000
569.383730 19.600000
570.389530 6.300000
571.386600 1.200000
613.375610 1.700000
614.392460 0.500000
775.422000 1.700000
776.451840 0.700000
793.451840 0.600000
925.480100 100.000000

NAME: Chrysanthellin A
SCANNUMBER: RIKEN_MONA_88
PRECURSORMZ: 1189.601143
PRECURSORTYPE: [M-H]-
IONMODE: Negative
SPECTRUMTYPE: MS2
COLLISIONENERGY: 10 eV
FORMULA: C58H94O25
SMILES: CC1OC(OC2C(O)COC(OC3C(C)OC(OC4C(OC(=O)C56CCC(C)(C)CC5C5=CCC7C8(C)CCC(OC9OC(CO)C(O)C(O)C9O)C(C)(C)C8CCC7(C)C5(C)CC6O)OCC(O)C4O)C(O)C3O)C2O)C(O)C(O)C1O
INCHI: InChI=1S/C58H94O25/c1-23-34(63)37(66)40(69)48(76-23)81-45-28(61)22-74-47(43(45)72)80-44-24(2)77-49(42(71)39(44)68)82-46-35(64)27(60)21-75-51(46)83-52(73)58-17-16-53(3,4)18-26(58)25-10-11-31-55(7)14-13-33(79-50-41(70)38(67)36(65)29(20-59)78-50)54(5,6)30(55)12-15-56(31,8)57(25,9)19-32(58)62/h10,23-24,26-51,59-72H,11-22H2,1-9H3
INCHIKEY: IBEZGTWSSFFKNB-UHFFFAOYSA-N
RETENTIONTIME: 6.121867
COMMENT: dataset=RIKEN_MONA; source_file=external_data/raw_libraries/RIKEN_MONA.xlsx; source_row=88; RT_sec=367.31202
Num Peaks: 20
163.052990 4.100000
295.109920 7.100000
381.141600 4.400000
436.943300 4.100000
441.168730 9.900000
466.142240 4.800000
483.171140 15.900000
483.190980 5.700000
484.170990 4.600000
555.194890 4.800000
556.192870 6.000000
633.387020 15.900000
633.431210 5.700000
634.439030 4.600000
698.015010 4.100000
1099.541630 5.100000
1099.590820 4.100000
1111.962770 5.100000
1171.564090 4.400000
1189.602420 100.000000

NAME: Chrysanthellin B
SCANNUMBER: RIKEN_MONA_89
PRECURSORMZ: 1207.610610
PRECURSORTYPE: [M+H]+
IONMODE: Positive
SPECTRUMTYPE: MS2
COLLISIONENERGY: 10 eV
FORMULA: C58H94O26
SMILES: CC1OC(OC2C(O)COC(OC3C(C)OC(OC4C(OC(=O)C56CCC(C)(C)CC5C5=CCC7C8(C)CCC(OC9OC(CO)C(O)C(O)C9O)C(C)(CO)C8CCC7(C)C5(C)CC6O)OCC(O)C4O)C(O)C3O)C2O)C(O)C(O)C1O
INCHI: InChI=1S/C58H94O26/c1-23-34(64)37(67)40(70)48(77-23)82-45-28(62)21-75-47(43(45)73)81-44-24(2)78-49(42(72)39(44)69)83-46-35(65)27(61)20-76-51(46)84-52(74)58-16-15-53(3,4)17-26(58)25-9-10-31-54(5)13-12-33(80-50-41(71)38(68)36(66)29(19-59)79-50)55(6,22-60)30(54)11-14-56(31,7)57(25,8)18-32(58)63/h9,23-24,26-51,59-73H,10-22H2,1-8H3
INCHIKEY: WNGIVKPPGCCJNP-UHFFFAOYSA-N
RETENTIONTIME: 5.791234
COMMENT: dataset=RIKEN_MONA; source_file=external_data/raw_libraries/RIKEN_MONA.xlsx; source_row=89; RT_sec=347.47404
Num Peaks: 150
72.420010 0.800000
147.067580 1.300000
187.148300 0.800000
189.134640 0.700000
201.169420 1.100000
203.148700 0.700000
207.168300 1.200000
207.181870 1.600000
225.063290 1.000000
225.077270 2.000000
239.089680 0.800000
240.098140 0.800000
243.081800 1.100000
243.092330 0.700000
247.091350 0.700000
257.106020 1.500000
257.116030 0.900000
259.080870 0.700000
261.503330 0.500000
275.108370 0.900000
279.109340 5.800000
280.109160 1.000000
293.118500 8.300000
293.131440 5.800000
294.123140 1.400000
309.116520 2.600000
309.129210 2.200000
325.165310 0.600000
353.125430 0.700000
369.225520 0.800000
375.134490 0.800000
384.146000 0.600000
387.104830 0.600000
407.328770 2.600000
408.329650 0.800000
409.341220 2.200000
413.311340 0.900000
419.153750 0.900000
419.172490 0.600000
425.158840 1.800000
425.319400 1.900000
425.343200 1.700000
426.182280 0.800000
427.346130 0.800000
435.317900 2.100000
435.338590 0.500000
436.341000 0.500000
441.341160 0.900000
453.337250 15.900000
453.386690 0.600000
454.327120 2.100000
454.347410 2.900000
455.339810 1.000000
455.366330 0.700000
471.334320 4.200000
471.351720 12.400000
471.370360 3.200000
472.343540 7.300000
489.346740 0.800000
489.370270 1.300000
490.367160 1.100000
495.070010 0.700000
496.347260 0.500000
501.682530 0.600000
556.412900 0.800000
581.281010 0.500000
581.364930 1.100000
581.387330 1.700000
583.401490 0.700000
587.370060 0.900000
599.380130 1.700000
599.411440 1.700000
600.394900 0.700000
600.418330 1.000000
615.376220 0.700000
617.408260 5.100000
618.413090 1.500000
633.390440 1.000000
633.408330 1.500000
635.384890 2.500000
635.409850 7.400000
635.433960 2.900000
636.410460 1.600000
636.436460 2.600000
637.404540 0.700000
651.410160 2.400000
651.433410 1.200000
665.479740 0.600000
727.428040 0.800000
727.453000 0.700000
730.409790 0.500000
731.417790 0.800000
745.456300 0.800000
749.446960 0.700000
761.412350 1.200000
763.468990 2.600000
764.475400 0.800000
767.459350 1.700000
768.471440 0.700000
779.449160 1.700000
780.510680 1.000000
781.477720 7.200000
781.518980 1.100000
782.436520 0.500000
782.476440 2.400000
783.428530 0.700000
783.461000 1.700000
784.463500 0.900000
794.849550 0.600000
797.439580 3.000000
797.467160 4.500000
797.503720 2.000000
798.460880 2.500000
798.502260 0.700000
799.481140 1.500000
845.459470 0.600000
863.480770 0.600000
899.537050 0.700000
911.526000 1.100000
913.486940 1.300000
913.527830 2.800000
914.515690 1.200000
915.511660 1.400000
915.544190 0.800000
925.499760 0.900000
929.477540 0.800000
929.517150 1.400000
929.541320 0.900000
930.515870 3.400000
932.529360 0.800000
943.528080 4.300000
943.568660 0.700000
944.490420 0.800000
944.558840 3.200000
1045.514280 0.700000
1045.541500 2.400000
1045.578370 2.000000
1046.565920 3.100000
1046.596070 0.700000
1047.566280 2.400000
1058.564450 0.800000
1075.561770 7.000000
1075.590700 7.000000
1076.576290 8.500000
1077.568480 2.100000
1077.645630 0.700000
1154.591670 0.500000
1206.606320 0.700000
1207.518550 1.400000
1207.611450 100.000000

NAME: Chrysin
SCANNUMBER: RIKEN_MONA_90
PRECURSORMZ: 255.065185
PRECURSORTYPE: [M+H]+
IONMODE: Positive
SPECTRUMTYPE: MS2
COLLISIONENERGY: 10 eV
FORMULA: C15H10O4
SMILES: O=c1cc(-c2ccccc2)oc2cc(O)cc(O)c12
INCHI: InChI=1S/C15H10O4/c16-10-6-11(17)15-12(18)8-13(19-14(15)7-10)9-4-2-1-3-5-9/h1-8,16-17H
INCHIKEY: RTIXKCRFFJGDFG-UHFFFAOYSA-N
RETENTIONTIME: 7.369067
COMMENT: dataset=RIKEN_MONA; source_file=external_data/raw_libraries/RIKEN_MONA.xlsx; source_row=90; RT_sec=442.14402
Num Peaks: 14
67.017310 0.700000
103.054150 2.100000
105.035800 0.800000
129.033050 1.000000
147.044340 1.600000
152.058330 0.800000
153.018710 7.600000
153.067230 0.600000
154.021210 0.600000
209.056840 1.000000
213.054750 0.800000
255.065000 100.000000
255.110200 3.700000
255.252910 0.700000

NAME: Cinchonidine
SCANNUMBER: RIKEN_MONA_91
PRECURSORMZ: 295.180490
PRECURSORTYPE: [M+H]+
IONMODE: Positive
SPECTRUMTYPE: MS2
COLLISIONENERGY: 10 eV
FORMULA: C19H22N2O
SMILES: C=CC1CN2CCC1CC2C(O)c1ccnc2ccccc12
INCHI: InChI=1S/C19H22N2O/c1-2-13-12-21-10-8-14(13)11-18(21)19(22)16-7-9-20-17-6-4-3-5-15(16)17/h2-7,9,13-14,18-19,22H,1,8,10-12H2
INCHIKEY: KMPWYEUPVWOPIM-UHFFFAOYSA-N
RETENTIONTIME: 3.146300
COMMENT: dataset=RIKEN_MONA; source_file=external_data/raw_libraries/RIKEN_MONA.xlsx; source_row=91; RT_sec=188.778
Num Peaks: 43
81.070530 1.000000
81.075360 1.100000
95.076930 0.700000
110.096690 1.700000
122.100040 0.700000
124.110030 0.800000
129.062290 0.800000
130.065720 3.900000
130.071880 1.100000
132.078690 0.700000
134.098100 0.700000
135.112350 0.600000
142.064190 2.000000
142.069630 0.800000
143.072950 2.100000
144.078750 0.600000
154.070400 1.400000
156.081120 2.400000
166.060440 0.700000
166.136090 0.600000
167.071230 0.600000
168.078170 2.000000
168.089160 0.800000
169.086400 1.400000
172.078140 0.600000
184.077800 1.000000
194.094330 0.500000
196.074940 0.500000
207.105150 0.600000
219.945910 0.600000
222.115170 0.500000
224.138640 0.600000
233.103620 0.700000
234.131480 1.300000
238.151750 0.500000
246.126360 0.600000
261.142730 0.900000
277.151730 0.800000
277.174530 5.100000
278.179050 1.000000
278.186950 0.600000
295.152310 0.600000
295.181520 100.000000

NAME: Cinchonine
SCANNUMBER: RIKEN_MONA_92
PRECURSORMZ: 295.180490
PRECURSORTYPE: [M+H]+
IONMODE: Positive
SPECTRUMTYPE: MS2
COLLISIONENERGY: 10 eV
FORMULA: C19H22N2O
SMILES: C=C[C@H]1CN2CCC1C[C@@H]2[C@@H](O)c1ccnc2ccccc12
INCHI: InChI=1S/C19H22N2O/c1-2-13-12-21-10-8-14(13)11-18(21)19(22)16-7-9-20-17-6-4-3-5-15(16)17/h2-7,9,13-14,18-19,22H,1,8,10-12H2/t13-,14?,18+,19-/m0/s1
INCHIKEY: KMPWYEUPVWOPIM-FGVBSWQGSA-N
RETENTIONTIME: 3.091267
COMMENT: dataset=RIKEN_MONA; source_file=external_data/raw_libraries/RIKEN_MONA.xlsx; source_row=92; RT_sec=185.47602
Num Peaks: 59
80.049600 0.600000
81.076080 1.100000
93.485960 0.600000
96.082140 0.700000
106.070240 0.600000
109.085690 0.600000
119.072100 0.600000
130.057740 1.900000
130.066090 2.500000
132.082060 0.700000
135.096250 2.000000
142.058470 1.400000
142.069960 1.400000
143.084580 0.800000
144.078770 0.600000
154.062130 0.600000
154.069500 1.000000
156.083910 2.600000
162.083050 0.600000
166.117490 0.700000
166.126210 1.500000
167.073520 2.000000
168.074400 1.500000
168.089660 1.700000
169.081410 1.400000
170.068650 0.700000
172.082410 1.200000
178.067180 0.600000
179.063930 0.600000
180.084470 2.100000
181.093060 0.700000
182.048680 0.600000
183.095350 0.600000
184.063170 0.600000
184.086320 0.600000
194.101100 0.700000
195.091710 0.600000
197.107300 0.700000
197.114260 0.700000
207.097810 0.800000
208.118070 1.100000
220.119190 0.700000
231.109590 1.100000
234.122500 0.800000
234.137730 0.700000
245.483050 0.500000
248.134670 1.400000
248.152420 0.700000
255.625580 0.600000
266.147340 0.600000
277.161410 2.500000
277.174710 2.900000
277.193150 0.700000
278.154720 0.700000
278.175020 1.700000
290.844450 0.700000
295.066710 0.600000
295.150420 0.600000
295.182160 100.000000

NAME: Cinobufagin
SCANNUMBER: RIKEN_MONA_93
PRECURSORMZ: 443.242815
PRECURSORTYPE: [M+H]+
IONMODE: Positive
SPECTRUMTYPE: MS2
COLLISIONENERGY: 10 eV
FORMULA: C26H34O6
SMILES: CC(=O)O[C@@H]1[C@H](c2ccc(=O)oc2)[C@@]2(C)CC[C@H]3[C@@H](CC[C@@H]4C[C@@H](O)CC[C@]34C)[C@]23O[C@H]13
INCHI: InChI=1S/C26H34O6/c1-14(27)31-22-21(15-4-7-20(29)30-13-15)25(3)11-9-18-19(26(25)23(22)32-26)6-5-16-12-17(28)8-10-24(16,18)2/h4,7,13,16-19,21-23,28H,5-6,8-12H2,1-3H3/t16-,17+,18+,19-,21+,22-,23-,24+,25-,26-/m1/s1
INCHIKEY: SCULJPGYOQQXTK-OLRINKBESA-N
RETENTIONTIME: 7.508033
COMMENT: dataset=RIKEN_MONA; source_file=external_data/raw_libraries/RIKEN_MONA.xlsx; source_row=93; RT_sec=450.48198
Num Peaks: 63
81.070200 0.600000
91.053730 0.600000
95.083110 0.800000
105.069760 1.300000
107.084790 1.600000
109.028440 0.800000
109.100260 0.700000
119.084300 1.400000
121.101650 0.700000
123.044070 1.400000
131.085400 2.000000
133.101610 1.300000
135.043730 0.500000
135.114440 0.900000
135.119200 0.500000
143.088150 0.500000
145.099700 1.800000
147.116730 1.500000
149.060460 0.500000
149.132720 0.800000
151.038190 3.600000
159.079210 0.800000
159.115630 2.800000
161.058750 0.500000
161.130840 1.400000
163.036970 1.200000
171.115280 1.100000
173.131480 1.000000
175.074770 1.500000
175.151370 0.600000
177.053150 0.800000
187.148120 5.600000
188.155030 0.800000
195.116560 1.100000
199.075360 0.700000
201.093230 0.800000
203.071240 0.600000
203.179020 2.600000
205.159420 0.600000
209.133130 0.600000
213.164780 1.100000
214.170700 0.700000
215.179640 3.400000
216.183210 1.200000
219.117580 0.500000
227.103230 0.600000
251.178240 1.400000
252.190830 0.600000
257.116610 0.900000
269.184570 1.100000
319.205200 0.700000
329.193270 0.800000
337.213130 1.500000
347.199280 3.400000
348.203800 1.000000
365.211850 8.600000
366.213990 2.700000
367.213560 0.500000
383.221010 1.800000
401.237060 2.500000
402.234500 0.600000
443.243100 100.000000
443.305450 2.300000

NAME: Conessine
SCANNUMBER: RIKEN_MONA_94
PRECURSORMZ: 357.326426
PRECURSORTYPE: [M+H]+
IONMODE: Positive
SPECTRUMTYPE: MS2
COLLISIONENERGY: 10 eV
FORMULA: C24H40N2
SMILES: C[C@H]1[C@H]2CC[C@H]3[C@@H]4CC=C5C[C@@H](N(C)C)CC[C@]5(C)[C@H]4CC[C@]23CN1C
INCHI: InChI=1S/C24H40N2/c1-16-20-8-9-22-19-7-6-17-14-18(25(3)4)10-12-23(17,2)21(19)11-13-24(20,22)15-26(16)5/h6,16,18-22H,7-15H2,1-5H3/t16-,18-,19+,20+,21-,22-,23-,24-/m0/s1
INCHIKEY: GPLGAQQQNWMVMM-MYAJQUOBSA-N
RETENTIONTIME: 3.351600
COMMENT: dataset=RIKEN_MONA; source_file=external_data/raw_libraries/RIKEN_MONA.xlsx; source_row=94; RT_sec=201.096
Num Peaks: 22
81.067570 1.600000
134.099700 1.400000
146.106030 1.700000
147.116590 2.500000
157.108570 1.300000
159.111040 1.200000
159.119350 2.200000
161.140340 1.700000
162.131590 1.200000
162.139500 2.300000
173.131290 1.700000
187.148560 1.200000
188.153380 1.400000
188.236240 1.200000
269.220610 1.200000
270.228240 1.600000
312.261110 6.300000
312.278080 4.900000
313.269710 3.600000
343.197780 2.200000
356.319180 2.100000
357.325810 100.000000

NAME: Coniferyl aldehyde
SCANNUMBER: RIKEN_MONA_95
PRECURSORMZ: 179.070271
PRECURSORTYPE: [M+H]+
IONMODE: Positive
SPECTRUMTYPE: MS2
COLLISIONENERGY: 10 eV
FORMULA: C10H10O3
SMILES: COc1cc(/C=C/C=O)ccc1O
INCHI: InChI=1S/C10H10O3/c1-13-10-7-8(3-2-6-11)4-5-9(10)12/h2-7,12H,1H3/b3-2+
INCHIKEY: DKZBBWMURDFHNE-NSCUHMNNSA-N
RETENTIONTIME: 4.763333
COMMENT: dataset=RIKEN_MONA; source_file=external_data/raw_libraries/RIKEN_MONA.xlsx; source_row=95; RT_sec=285.79998
Num Peaks: 59
65.034030 0.700000
65.041730 1.500000
69.502140 1.300000
77.042790 0.700000
79.052170 1.300000
90.055130 0.700000
91.044200 0.600000
91.054200 8.300000
91.061000 0.900000
92.060940 2.200000
96.420750 0.500000
103.051040 0.700000
103.059820 1.000000
105.068510 5.000000
105.328120 0.600000
107.047160 2.000000
107.867280 0.500000
108.053670 1.400000
110.888180 0.500000
115.054160 1.200000
118.035090 1.000000
118.043820 3.800000
119.049940 21.600000
120.048490 0.700000
120.062130 0.900000
121.510360 0.600000
123.040500 1.100000
123.048460 2.000000
131.054200 1.400000
133.065090 8.200000
133.073350 1.800000
135.041240 1.600000
136.042980 0.600000
136.054580 5.100000
137.056880 0.800000
139.950730 0.700000
139.990020 0.600000
142.599780 0.500000
146.030760 2.600000
146.037780 8.300000
147.042720 42.300000
147.049530 14.900000
148.047740 7.200000
150.065610 1.000000
151.043850 0.700000
161.034090 0.700000
161.045380 1.100000
161.060120 34.400000
161.303240 0.600000
162.062670 3.900000
162.074840 0.700000
163.038390 1.500000
163.062960 0.700000
164.050220 1.000000
169.698550 0.600000
178.984250 0.500000
179.071380 100.000000
179.100720 0.700000
179.112520 0.700000

NAME: Convolidine
SCANNUMBER: RIKEN_MONA_96
PRECURSORMZ: 278.138685
PRECURSORTYPE: [M+H]+
IONMODE: Positive
SPECTRUMTYPE: MS2
COLLISIONENERGY: 10 eV
FORMULA: C15H19NO4
SMILES: COc1cc(C(=O)OC2CC3CCC(C2)N3)ccc1O
INCHI: InChI=1S/C15H19NO4/c1-19-14-6-9(2-5-13(14)17)15(18)20-12-7-10-3-4-11(8-12)16-10/h2,5-6,10-12,16-17H,3-4,7-8H2,1H3
INCHIKEY: GWWGRYGNRKFSSX-UHFFFAOYSA-N
RETENTIONTIME: 3.269383
COMMENT: dataset=RIKEN_MONA; source_file=external_data/raw_libraries/RIKEN_MONA.xlsx; source_row=96; RT_sec=196.16298
Num Peaks: 10
77.039470 1.700000
91.054240 3.000000
93.070010 17.200000
94.074910 1.800000
110.096230 13.800000
111.100280 1.100000
123.045840 1.900000
151.039540 10.000000
278.139160 100.000000
278.186920 2.600000

NAME: Convolvamine
SCANNUMBER: RIKEN_MONA_97
PRECURSORMZ: 306.169985
PRECURSORTYPE: [M+H]+
IONMODE: Positive
SPECTRUMTYPE: MS2
COLLISIONENERGY: 10 eV
FORMULA: C17H23NO4
SMILES: COc1ccc(C(=O)OC2CC3CCC(C2)N3C)cc1OC
INCHI: InChI=1S/C17H23NO4/c1-18-12-5-6-13(18)10-14(9-12)22-17(19)11-4-7-15(20-2)16(8-11)21-3/h4,7-8,12-14H,5-6,9-10H2,1-3H3
INCHIKEY: AEFPCFUCFQBXDQ-UHFFFAOYSA-N
RETENTIONTIME: 3.947533
COMMENT: dataset=RIKEN_MONA; source_file=external_data/raw_libraries/RIKEN_MONA.xlsx; source_row=97; RT_sec=236.85198
Num Peaks: 9
91.058470 0.900000
93.070900 8.300000
94.070780 0.600000
94.077680 0.500000
124.112740 28.800000
125.115230 2.300000
165.055620 1.600000
306.171230 100.000000
306.221280 2.800000

NAME: Coralyne
SCANNUMBER: RIKEN_MONA_98
PRECURSORMZ: 364.153786
PRECURSORTYPE: [M]+
IONMODE: Positive
SPECTRUMTYPE: MS2
COLLISIONENERGY: 10 eV
FORMULA: [C22H22NO4]+
SMILES: COc1cc2cc3c4cc(OC)c(OC)cc4cc[n+]3c(C)c2cc1OC
INCHI: InChI=1S/C22H22NO4/c1-13-16-11-21(26-4)20(25-3)10-15(16)8-18-17-12-22(27-5)19(24-2)9-14(17)6-7-23(13)18/h6-12H,1-5H3/q+1
INCHIKEY: GOEJQGGEIVSVOK-UHFFFAOYSA-N
RETENTIONTIME: 5.265750
COMMENT: dataset=RIKEN_MONA; source_file=external_data/raw_libraries/RIKEN_MONA.xlsx; source_row=98; RT_sec=315.945
Num Peaks: 21
247.100630 0.900000
275.092410 0.600000
276.103180 1.700000
291.119450 0.900000
291.140750 0.600000
304.097020 7.100000
305.104610 2.300000
306.110500 0.800000
319.125460 1.100000
320.127380 10.100000
321.121860 1.000000
321.134950 1.600000
332.094570 5.100000
333.097470 2.200000
333.110110 0.700000
348.123200 26.800000
349.127140 11.200000
350.129030 1.800000
364.103180 0.900000
364.154300 100.000000
364.209410 2.500000

NAME: Corosolic acid
SCANNUMBER: RIKEN_MONA_99
PRECURSORMZ: 473.362536
PRECURSORTYPE: [M+H]+
IONMODE: Positive
SPECTRUMTYPE: MS2
COLLISIONENERGY: 10 eV
FORMULA: C30H48O4
SMILES: C[C@@H]1[C@H]2C3=CC[C@@H]4[C@@]5(C)C[C@@H](O)[C@H](O)C(C)(C)[C@@H]5CC[C@@]4(C)[C@]3(C)CC[C@@]2(C(=O)O)CC[C@H]1C
INCHI: InChI=1S/C30H48O4/c1-17-10-13-30(25(33)34)15-14-28(6)19(23(30)18(17)2)8-9-22-27(5)16-20(31)24(32)26(3,4)21(27)11-12-29(22,28)7/h8,17-18,20-24,31-32H,9-16H2,1-7H3,(H,33,34)/t17-,18+,20-,21+,22-,23+,24+,27+,28-,29-,30+/m1/s1
INCHIKEY: HFGSQOYIOKBQOW-ZSDYHTTISA-N
RETENTIONTIME: 9.894167
COMMENT: dataset=RIKEN_MONA; source_file=external_data/raw_libraries/RIKEN_MONA.xlsx; source_row=99; RT_sec=593.650019999999
Num Peaks: 74
109.087330 7.400000
121.096600 14.600000
121.103410 6.700000
123.117420 9.200000
135.118030 16.100000
145.099900 10.400000
147.112290 10.900000
149.128420 11.200000
149.172740 4.200000
159.110570 6.000000
159.116040 4.500000
163.110370 6.200000
163.121000 7.700000
163.149870 9.200000
164.117260 5.200000
173.127690 6.000000
175.131520 4.200000
175.147510 4.700000
175.157780 4.500000
177.168330 5.500000
179.150050 5.000000
187.143740 10.400000
188.160750 4.500000
189.144550 6.000000
189.163570 79.200000
190.167360 6.000000
203.158100 5.000000
203.175380 9.200000
203.189480 6.700000
204.189800 5.700000
205.160610 100.000000
205.196300 19.400000
205.247480 5.500000
206.163090 10.200000
206.193300 4.500000
207.171360 19.100000
210.439640 6.700000
214.166580 4.200000
215.176970 8.900000
221.191800 5.000000
223.158330 4.500000
235.163540 11.900000
241.203670 6.500000
245.198380 4.700000
249.182390 5.200000
249.195880 9.700000
285.261380 4.200000
295.245450 13.600000
313.234440 5.000000
313.255160 4.500000
391.325500 4.500000
408.758850 4.200000
409.352510 81.100000
410.342620 15.400000
410.376250 11.700000
427.357390 16.100000
427.376860 4.200000
428.356930 17.100000
437.304230 5.200000
437.329280 11.400000
437.347720 15.900000
437.376190 5.000000
438.353270 22.600000
439.346190 5.500000
439.363740 4.700000
455.333400 5.200000
455.352200 27.800000
455.363430 12.900000
456.349460 26.600000
457.353060 4.200000
472.352970 5.200000
473.347110 13.600000
473.367070 49.600000
473.390500 9.200000

NAME: Cyanidin
SCANNUMBER: RIKEN_MONA_100
PRECURSORMZ: 287.054466
PRECURSORTYPE: [M]+
IONMODE: Positive
SPECTRUMTYPE: MS2
COLLISIONENERGY: 10 eV
FORMULA: [C15H11O6]+
SMILES: Oc1cc(O)c2cc(O)c(-c3ccc(O)c(O)c3)[o+]c2c1
INCHI: InChI=1S/C15H10O6/c16-8-4-11(18)9-6-13(20)15(21-14(9)5-8)7-1-2-10(17)12(19)3-7/h1-6H,(H4-,16,17,18,19,20)/p+1
INCHIKEY: VEVZSMAEJFVWIL-UHFFFAOYSA-O
RETENTIONTIME: 6.022717
COMMENT: dataset=RIKEN_MONA; source_file=external_data/raw_libraries/RIKEN_MONA.xlsx; source_row=100; RT_sec=361.36302
Num Peaks: 25
109.027960 3.400000
111.012120 3.800000
121.025660 4.100000
121.033740 3.200000
135.038740 1.900000
137.031740 1.800000
153.019300 9.700000
153.025410 3.600000
164.972760 1.600000
165.025990 4.700000
166.012210 1.700000
171.043290 1.800000
172.048630 1.500000
213.053310 5.700000
214.062260 4.700000
225.051130 1.300000
229.056180 2.000000
241.055190 1.500000
245.047380 1.500000
258.043210 3.600000
285.045410 1.800000
286.058350 1.400000
287.040160 14.300000
287.054290 100.000000
287.084900 1.500000

NAME: Cyanidin 3-(2G-glucosylrutinoside)
SCANNUMBER: RIKEN_MONA_101
PRECURSORMZ: 757.218022
PRECURSORTYPE: [M]+
IONMODE: Positive
SPECTRUMTYPE: MS2
COLLISIONENERGY: 10 eV
FORMULA: [C33H41O20]+
SMILES: CC1OC(OCC2OC(Oc3cc4c(O)cc(O)cc4[o+]c3-c3ccc(O)c(O)c3)C(OC3OC(CO)C(O)C(O)C3O)C(O)C2O)C(O)C(O)C1O
INCHI: InChI=1S/C33H40O20/c1-10-21(39)24(42)27(45)31(48-10)47-9-20-23(41)26(44)30(53-32-28(46)25(43)22(40)19(8-34)51-32)33(52-20)50-18-7-13-15(37)5-12(35)6-17(13)49-29(18)11-2-3-14(36)16(38)4-11/h2-7,10,19-28,30-34,39-46H,8-9H2,1H3,(H3-,35,36,37,38)/p+1
INCHIKEY: MSUVUDCULKNUJL-UHFFFAOYSA-O
RETENTIONTIME: 2.749200
COMMENT: dataset=RIKEN_MONA; source_file=external_data/raw_libraries/RIKEN_MONA.xlsx; source_row=101; RT_sec=164.952
Num Peaks: 9
286.986660 0.700000
287.055940 91.900000
288.060880 18.700000
289.052800 0.800000
289.065610 1.000000
611.163330 0.800000
612.160400 0.500000
757.153140 1.100000
757.221620 100.000000

NAME: Cyanidin-3,5-di-O-glucoside
SCANNUMBER: RIKEN_MONA_102
PRECURSORMZ: 611.160113
PRECURSORTYPE: [M]+
IONMODE: Positive
SPECTRUMTYPE: MS2
COLLISIONENERGY: 10 eV
FORMULA: [C27H31O16]+
SMILES: OC[C@H]1O[C@@H](Oc2cc3c(O[C@@H]4O[C@H](CO)[C@@H](O)[C@H](O)[C@H]4O)cc(O)cc3[o+]c2-c2ccc(O)c(O)c2)[C@H](O)[C@@H](O)[C@@H]1O
INCHI: InChI=1S/C27H30O16/c28-7-17-19(33)21(35)23(37)26(42-17)40-15-5-10(30)4-14-11(15)6-16(25(39-14)9-1-2-12(31)13(32)3-9)41-27-24(38)22(36)20(34)18(8-29)43-27/h1-6,17-24,26-29,33-38H,7-8H2,(H2-,30,31,32)/p+1/t17-,18-,19-,20-,21+,22+,23-,24-,26-,27-/m1/s1
INCHIKEY: RDFLLVCQYHQOBU-ZOTFFYTFSA-O
RETENTIONTIME: 2.500267
COMMENT: dataset=RIKEN_MONA; source_file=external_data/raw_libraries/RIKEN_MONA.xlsx; source_row=102; RT_sec=150.01602
Num Peaks: 27
287.003750 1.500000
287.022980 3.300000
287.055450 100.000000
288.044950 2.400000
288.063200 8.900000
289.036620 1.500000
289.054140 1.200000
289.066310 2.400000
396.570010 0.900000
420.501280 1.600000
431.083190 0.800000
449.087590 5.600000
449.105560 10.400000
449.118010 14.600000
450.093780 1.600000
450.110200 1.600000
450.127500 1.100000
450.175110 0.900000
451.100040 1.900000
451.120000 1.300000
452.021480 0.800000
452.105680 1.300000
609.624760 2.600000
610.789120 1.300000
611.086000 2.600000
611.116700 2.300000
611.156190 51.000000

NAME: Cyanidin-3-O-alpha-arabinoside
SCANNUMBER: RIKEN_MONA_103
PRECURSORMZ: 419.096725
PRECURSORTYPE: [M]+
IONMODE: Positive
SPECTRUMTYPE: MS2
COLLISIONENERGY: 10 eV
FORMULA: [C20H19O10]+
SMILES: Oc1cc(O)c2cc(O[C@@H]3OC[C@H](O)C(O)C3O)c(-c3ccc(O)c(O)c3)[o+]c2c1
INCHI: InChI=1S/C20H18O10/c21-9-4-12(23)10-6-16(30-20-18(27)17(26)14(25)7-28-20)19(29-15(10)5-9)8-1-2-11(22)13(24)3-8/h1-6,14,17-18,20,25-27H,7H2,(H3-,21,22,23,24)/p+1/t14-,17?,18?,20-/m0/s1
INCHIKEY: KUCVMQMKRICXJC-VLNXYBQZSA-O
RETENTIONTIME: 3.013750
COMMENT: dataset=RIKEN_MONA; source_file=external_data/raw_libraries/RIKEN_MONA.xlsx; source_row=103; RT_sec=180.825
Num Peaks: 21
137.014590 0.700000
149.016600 0.800000
185.041240 0.600000
185.066470 1.200000
195.044110 0.500000
196.041550 0.600000
213.064010 0.800000
213.073520 0.600000
242.042570 0.600000
286.047000 0.900000
286.955810 0.800000
287.017670 0.700000
287.055880 100.000000
287.675050 0.600000
288.043240 4.200000
288.060390 14.300000
289.054290 1.200000
289.069180 2.000000
299.433110 0.900000
340.203460 0.700000
419.096560 29.900000

NAME: Cyanidin-3-O-galactoside
SCANNUMBER: RIKEN_MONA_104
PRECURSORMZ: 449.107289
PRECURSORTYPE: [M]+
IONMODE: Positive
SPECTRUMTYPE: MS2
COLLISIONENERGY: 10 eV
FORMULA: [C21H21O11]+
SMILES: OC[C@H]1O[C@@H](Oc2cc3c(O)cc(O)cc3[o+]c2-c2ccc(O)c(O)c2)[C@H](O)[C@@H](O)[C@H]1O
INCHI: InChI=1S/C21H20O11/c22-7-16-17(27)18(28)19(29)21(32-16)31-15-6-10-12(25)4-9(23)5-14(10)30-20(15)8-1-2-11(24)13(26)3-8/h1-6,16-19,21-22,27-29H,7H2,(H3-,23,24,25,26)/p+1/t16-,17+,18+,19-,21-/m1/s1
INCHIKEY: RKWHWFONKJEUEF-WVXKDWSHSA-O
RETENTIONTIME: 2.852133
COMMENT: dataset=RIKEN_MONA; source_file=external_data/raw_libraries/RIKEN_MONA.xlsx; source_row=104; RT_sec=171.127979999999
Num Peaks: 13
149.019380 0.700000
165.844920 0.600000
181.867200 0.600000
213.045760 0.800000
287.008580 0.600000
287.021240 1.000000
287.055510 100.000000
288.032260 1.000000
288.060120 17.200000
289.048280 0.800000
289.060030 1.500000
449.060240 1.400000
449.109440 30.400000

NAME: Cyanidin-3-O-glucoside
SCANNUMBER: RIKEN_MONA_105
PRECURSORMZ: 449.107289
PRECURSORTYPE: [M]+
IONMODE: Positive
SPECTRUMTYPE: MS2
COLLISIONENERGY: 10 eV
FORMULA: [C21H21O11]+
SMILES: OC[C@H]1O[C@@H](Oc2cc3c(O)cc(O)cc3[o+]c2-c2ccc(O)c(O)c2)[C@H](O)[C@@H](O)[C@@H]1O
INCHI: InChI=1S/C21H20O11/c22-7-16-17(27)18(28)19(29)21(32-16)31-15-6-10-12(25)4-9(23)5-14(10)30-20(15)8-1-2-11(24)13(26)3-8/h1-6,16-19,21-22,27-29H,7H2,(H3-,23,24,25,26)/p+1/t16-,17-,18+,19-,21-/m1/s1
INCHIKEY: RKWHWFONKJEUEF-GQUPQBGVSA-O
RETENTIONTIME: 2.911317
COMMENT: dataset=RIKEN_MONA; source_file=external_data/raw_libraries/RIKEN_MONA.xlsx; source_row=105; RT_sec=174.67902
Num Peaks: 10
213.044620 0.900000
287.005860 1.000000
287.055110 100.000000
288.030820 0.900000
288.059750 18.600000
289.029910 0.700000
289.051910 0.500000
289.061280 0.900000
449.067810 0.800000
449.110530 24.600000

NAME: Cyanidin-3-O-rhamnoside
SCANNUMBER: RIKEN_MONA_106
PRECURSORMZ: 433.112375
PRECURSORTYPE: [M]+
IONMODE: Positive
SPECTRUMTYPE: MS2
COLLISIONENERGY: 10 eV
FORMULA: [C21H21O10]+
SMILES: C[C@@H]1O[C@@H](Oc2cc3c(O)cc(O)cc3[o+]c2-c2ccc(O)c(O)c2)[C@H](O)[C@H](O)[C@H]1O
INCHI: InChI=1S/C21H20O10/c1-8-17(26)18(27)19(28)21(29-8)31-16-7-11-13(24)5-10(22)6-15(11)30-20(16)9-2-3-12(23)14(25)4-9/h2-8,17-19,21,26-28H,1H3,(H3-,22,23,24,25)/p+1/t8-,17-,18+,19+,21-/m0/s1
INCHIKEY: USWXMMRFOWNEOR-VWLKIGRWSA-O
RETENTIONTIME: 3.206300
COMMENT: dataset=RIKEN_MONA; source_file=external_data/raw_libraries/RIKEN_MONA.xlsx; source_row=106; RT_sec=192.378
Num Peaks: 21
137.014280 1.100000
149.025070 0.500000
175.075650 1.200000
181.908290 0.900000
186.067320 0.500000
189.046550 0.600000
197.057500 0.600000
199.043730 0.500000
213.049090 0.600000
226.057160 0.600000
269.038700 0.500000
286.980830 0.600000
287.003330 0.500000
287.016880 1.600000
287.054410 100.000000
288.058010 10.300000
289.075130 0.700000
290.065550 0.500000
433.094480 2.200000
433.113430 12.400000
433.130950 2.800000

NAME: Cyanidin-3-O-rutinoside
SCANNUMBER: RIKEN_MONA_107
PRECURSORMZ: 595.165198
PRECURSORTYPE: [M]+
IONMODE: Positive
SPECTRUMTYPE: MS2
COLLISIONENERGY: 10 eV
FORMULA: [C27H31O15]+
SMILES: C[C@@H]1O[C@@H](OC[C@H]2O[C@@H](Oc3cc4c(O)cc(O)cc4[o+]c3-c3ccc(O)c(O)c3)[C@H](O)[C@@H](O)[C@@H]2O)[C@H](O)[C@H](O)[C@H]1O
INCHI: InChI=1S/C27H30O15/c1-9-19(32)21(34)23(36)26(39-9)38-8-18-20(33)22(35)24(37)27(42-18)41-17-7-12-14(30)5-11(28)6-16(12)40-25(17)10-2-3-13(29)15(31)4-10/h2-7,9,18-24,26-27,32-37H,8H2,1H3,(H3-,28,29,30,31)/p+1/t9-,18+,19-,20+,21+,22-,23+,24+,26+,27+/m0/s1
INCHIKEY: USNPULRDBDVJAO-FXCAAIILSA-O
RETENTIONTIME: 2.922933
COMMENT: dataset=RIKEN_MONA; source_file=external_data/raw_libraries/RIKEN_MONA.xlsx; source_row=107; RT_sec=175.37598
Num Peaks: 12
287.009160 0.800000
287.055450 100.000000
288.059540 13.500000
289.026580 0.600000
289.051730 1.200000
289.074620 1.500000
449.109560 2.600000
450.105960 1.800000
595.069820 1.400000
595.114690 1.400000
595.147770 20.100000
595.168270 46.200000

NAME: Cyanidin-3-O-sambubioside-5-O-glucoside
SCANNUMBER: RIKEN_MONA_108
PRECURSORMZ: 743.202372
PRECURSORTYPE: [M]+
IONMODE: Positive
SPECTRUMTYPE: MS2
COLLISIONENERGY: 10 eV
FORMULA: [C32H39O20]+
SMILES: OC[C@H]1O[C@@H](Oc2cc(O)cc3[o+]c(-c4ccc(O)c(O)c4)c(O[C@@H]4O[C@H](CO)[C@@H](O)[C@H](O)[C@H]4O[C@@H]4OC[C@@H](O)[C@H](O)[C@H]4O)cc23)[C@H](O)[C@@H](O)[C@@H]1O
INCHI: InChI=1S/C32H38O20/c33-7-19-22(40)24(42)27(45)31(50-19)48-17-5-11(35)4-16-12(17)6-18(28(47-16)10-1-2-13(36)14(37)3-10)49-32-29(25(43)23(41)20(8-34)51-32)52-30-26(44)21(39)15(38)9-46-30/h1-6,15,19-27,29-34,38-45H,7-9H2,(H2-,35,36,37)/p+1/t15-,19-,20-,21+,22-,23-,24+,25+,26-,27-,29-,30+,31-,32-/m1/s1
INCHIKEY: OLBLWNPOURNBCY-MRBLLYQQSA-O
RETENTIONTIME: 2.485633
COMMENT: dataset=RIKEN_MONA; source_file=external_data/raw_libraries/RIKEN_MONA.xlsx; source_row=108; RT_sec=149.13798
Num Peaks: 27
195.585370 0.600000
287.013030 2.900000
287.055210 64.800000
288.041810 2.500000
288.064850 10.600000
288.948030 0.500000
289.017330 0.600000
289.063750 3.700000
289.080290 0.900000
434.224330 0.500000
448.107120 0.600000
449.055570 1.200000
449.085170 2.900000
449.111790 17.400000
450.112950 5.700000
451.104370 0.500000
452.129580 0.500000
581.150330 6.100000
581.165470 3.800000
582.148070 0.900000
582.166810 1.300000
583.138430 0.900000
583.988650 0.600000
742.190730 0.600000
743.050720 0.800000
743.111570 0.800000
743.206120 100.000000

NAME: Cyanidin-3-O-sophoroside
SCANNUMBER: RIKEN_MONA_109
PRECURSORMZ: 611.160113
PRECURSORTYPE: [M]+
IONMODE: Positive
SPECTRUMTYPE: MS2
COLLISIONENERGY: 10 eV
FORMULA: [C27H31O16]+
SMILES: OC[C@H]1O[C@@H](O[C@H]2[C@H](Oc3cc4c(O)cc(O)cc4[o+]c3-c3ccc(O)c(O)c3)O[C@H](CO)[C@@H](O)[C@@H]2O)[C@H](O)[C@@H](O)[C@@H]1O
INCHI: InChI=1S/C27H30O16/c28-7-17-19(34)21(36)23(38)26(41-17)43-25-22(37)20(35)18(8-29)42-27(25)40-16-6-11-13(32)4-10(30)5-15(11)39-24(16)9-1-2-12(31)14(33)3-9/h1-6,17-23,25-29,34-38H,7-8H2,(H3-,30,31,32,33)/p+1/t17-,18-,19-,20-,21+,22+,23-,25-,26+,27-/m1/s1
INCHIKEY: SXYMMDGPXYVCER-WGNLCONDSA-O
RETENTIONTIME: 2.771250
COMMENT: dataset=RIKEN_MONA; source_file=external_data/raw_libraries/RIKEN_MONA.xlsx; source_row=109; RT_sec=166.275
Num Peaks: 10
287.002840 0.700000
287.016630 0.600000
287.055020 100.000000
288.046080 4.100000
288.058560 13.800000
289.052520 1.300000
289.067320 0.900000
611.078800 1.200000
611.109070 0.600000
611.159730 46.400000

NAME: Cyanidine-3-O-sambubioside
SCANNUMBER: RIKEN_MONA_110
PRECURSORMZ: 581.149548
PRECURSORTYPE: [M]+
IONMODE: Positive
SPECTRUMTYPE: MS2
COLLISIONENERGY: 10 eV
FORMULA: [C26H29O15]+
SMILES: OC[C@H]1O[C@@H](Oc2cc3c(O)cc(O)cc3[o+]c2-c2ccc(O)c(O)c2)[C@H](O[C@@H]2OC[C@@H](O)[C@H](O)[C@H]2O)[C@@H](O)[C@@H]1O
INCHI: InChI=1S/C26H28O15/c27-7-18-20(34)21(35)24(41-25-22(36)19(33)15(32)8-37-25)26(40-18)39-17-6-11-13(30)4-10(28)5-16(11)38-23(17)9-1-2-12(29)14(31)3-9/h1-6,15,18-22,24-27,32-36H,7-8H2,(H3-,28,29,30,31)/p+1/t15-,18-,19+,20-,21+,22-,24-,25+,26-/m1/s1
INCHIKEY: ZPPQIOUITZSYAO-AOBOYTTNSA-O
RETENTIONTIME: 2.872917
COMMENT: dataset=RIKEN_MONA; source_file=external_data/raw_libraries/RIKEN_MONA.xlsx; source_row=110; RT_sec=172.37502
Num Peaks: 9
148.994030 0.600000
286.995390 0.700000
287.019470 1.200000
287.055020 100.000000
288.035460 1.000000
288.059200 16.800000
289.063510 3.200000
581.082890 0.700000
581.150270 44.300000

NAME: Cyclo(proline-leucine)
SCANNUMBER: RIKEN_MONA_111
PRECURSORMZ: 211.144104
PRECURSORTYPE: [M+H]+
IONMODE: Positive
SPECTRUMTYPE: MS2
COLLISIONENERGY: 10 eV
FORMULA: C11H18N2O2
SMILES: CC(C)CC1N=C(O)C2CCCN2C1=O
INCHI: InChI=1S/C11H18N2O2/c1-7(2)6-8-11(15)13-5-3-4-9(13)10(14)12-8/h7-9H,3-6H2,1-2H3,(H,12,14)
INCHIKEY: SZJNCZMRZAUNQT-UHFFFAOYSA-N
RETENTIONTIME: 4.026050
COMMENT: dataset=RIKEN_MONA; source_file=external_data/raw_libraries/RIKEN_MONA.xlsx; source_row=111; RT_sec=241.563
Num Peaks: 18
58.034240 0.600000
70.066440 9.400000
72.043460 0.900000
86.097720 9.800000
98.061780 5.700000
110.064490 0.600000
114.083350 0.600000
114.090720 2.600000
127.087810 1.400000
138.129550 6.000000
155.076770 0.500000
155.155990 0.900000
166.141360 0.600000
167.129790 0.600000
183.135470 0.700000
183.153020 4.300000
194.119690 0.800000
211.145110 100.000000

NAME: Cyclo-prolylglycine
SCANNUMBER: RIKEN_MONA_112
PRECURSORMZ: 155.081504
PRECURSORTYPE: [M+H]+
IONMODE: Positive
SPECTRUMTYPE: MS2
COLLISIONENERGY: 10 eV
FORMULA: C7H10N2O2
SMILES: O=C1CN=C(O)[C@@H]2CCCN12
INCHI: InChI=1S/C7H10N2O2/c10-6-4-8-7(11)5-2-1-3-9(5)6/h5H,1-4H2,(H,8,11)/t5-/m0/s1
INCHIKEY: OWOHLURDBZHNGG-YFKPBYRVSA-N
RETENTIONTIME: 2.057100
COMMENT: dataset=RIKEN_MONA; source_file=external_data/raw_libraries/RIKEN_MONA.xlsx; source_row=112; RT_sec=123.426
Num Peaks: 14
56.060390 0.900000
67.353710 0.700000
70.059550 0.900000
70.068040 9.900000
82.065200 5.700000
96.087110 0.800000
99.091440 0.600000
105.070010 0.900000
127.043670 0.800000
127.076730 1.600000
127.089010 6.600000
130.361400 0.700000
153.917740 0.600000
155.082960 100.000000

NAME: Cynarin
SCANNUMBER: RIKEN_MONA_113
PRECURSORMZ: 515.119500
PRECURSORTYPE: [M-H]-
IONMODE: Negative
SPECTRUMTYPE: MS2
COLLISIONENERGY: 10 eV
FORMULA: C25H24O12
SMILES: O=C(/C=C/c1ccc(O)c(O)c1)OC1CC(OC(=O)/C=C/c2ccc(O)c(O)c2)(C(=O)O)CC(O)C1O
INCHI: InChI=1S/C25H24O12/c26-15-5-1-13(9-17(15)28)3-7-21(31)36-20-12-25(24(34)35,11-19(30)23(20)33)37-22(32)8-4-14-2-6-16(27)18(29)10-14/h1-10,19-20,23,26-30,33H,11-12H2,(H,34,35)/b7-3+,8-4+
INCHIKEY: YDDUMTOHNYZQPO-FCXRPNKRSA-N
RETENTIONTIME: 3.489183
COMMENT: dataset=RIKEN_MONA; source_file=external_data/raw_libraries/RIKEN_MONA.xlsx; source_row=113; RT_sec=209.35098
Num Peaks: 42
109.028310 2.500000
133.027880 1.600000
134.034300 4.200000
135.045330 20.900000
135.055980 2.500000
136.048650 3.300000
137.021880 1.600000
137.047130 1.600000
153.057650 2.400000
155.031800 2.100000
155.039520 1.800000
161.023410 6.700000
162.022430 1.600000
162.036850 4.000000
173.038060 3.800000
173.050540 1.600000
174.044200 1.800000
175.143370 1.700000
176.045720 2.100000
177.018860 10.900000
178.017380 1.700000
178.025830 3.000000
179.033780 85.300000
180.037400 3.700000
188.847310 1.900000
191.055790 88.600000
193.053130 1.700000
193.064820 1.700000
227.061310 1.700000
274.183870 1.600000
291.089540 1.700000
295.067140 1.800000
307.081210 1.800000
335.085940 17.600000
336.082790 1.800000
351.068940 4.200000
353.089050 57.000000
354.089810 4.700000
513.098020 5.100000
514.111210 8.100000
514.130000 1.500000
515.121640 100.000000

NAME: DL-Coniine
SCANNUMBER: RIKEN_MONA_114
PRECURSORMZ: 128.143376
PRECURSORTYPE: [M+H]+
IONMODE: Positive
SPECTRUMTYPE: MS2
COLLISIONENERGY: 10 eV
FORMULA: C8H17N
SMILES: CCCC1CCCCN1
INCHI: InChI=1S/C8H17N/c1-2-5-8-6-3-4-7-9-8/h8-9H,2-7H2,1H3
INCHIKEY: NDNUANOUGZGEPO-UHFFFAOYSA-N
RETENTIONTIME: 2.779433
COMMENT: dataset=RIKEN_MONA; source_file=external_data/raw_libraries/RIKEN_MONA.xlsx; source_row=114; RT_sec=166.76598
Num Peaks: 2
69.071540 5.700000
128.143890 100.000000

NAME: Daidzein
SCANNUMBER: RIKEN_MONA_115
PRECURSORMZ: 255.065185
PRECURSORTYPE: [M+H]+
IONMODE: Positive
SPECTRUMTYPE: MS2
COLLISIONENERGY: 10 eV
FORMULA: C15H10O4
SMILES: O=c1c(-c2ccc(O)cc2)coc2cc(O)ccc12
INCHI: InChI=1S/C15H10O4/c16-10-3-1-9(2-4-10)13-8-19-14-7-11(17)5-6-12(14)15(13)18/h1-8,16-17H
INCHIKEY: ZQSIJRDFPHDXIC-UHFFFAOYSA-N
RETENTIONTIME: 5.152583
COMMENT: dataset=RIKEN_MONA; source_file=external_data/raw_libraries/RIKEN_MONA.xlsx; source_row=115; RT_sec=309.15498
Num Peaks: 24
91.053330 1.200000
119.051320 0.700000
128.060750 1.400000
137.023360 5.800000
138.031690 0.700000
145.027010 1.700000
149.026990 0.600000
152.061840 3.200000
153.065350 1.400000
153.072680 1.200000
154.073300 0.500000
157.065660 1.300000
171.082550 0.600000
181.055470 1.300000
181.065770 4.000000
182.068120 1.000000
197.056780 1.000000
198.065540 0.600000
199.075530 6.200000
200.083270 1.500000
227.072980 2.600000
228.075390 0.600000
237.054820 1.900000
255.064990 100.000000

NAME: Daidzein-8-C-glucoside
SCANNUMBER: RIKEN_MONA_116
PRECURSORMZ: 417.118009
PRECURSORTYPE: [M+H]+
IONMODE: Positive
SPECTRUMTYPE: MS2
COLLISIONENERGY: 10 eV
FORMULA: C21H20O9
SMILES: O=c1c(-c2ccc(O)cc2)coc2c([C@@H]3O[C@H](CO)[C@@H](O)[C@H](O)[C@H]3O)c(O)ccc12
INCHI: InChI=1S/C21H20O9/c22-7-14-17(26)18(27)19(28)21(30-14)15-13(24)6-5-11-16(25)12(8-29-20(11)15)9-1-3-10(23)4-2-9/h1-6,8,14,17-19,21-24,26-28H,7H2/t14-,17-,18+,19-,21+/m1/s1
INCHIKEY: HKEAFJYKMMKDOR-VPRICQMDSA-N
RETENTIONTIME: 3.274983
COMMENT: dataset=RIKEN_MONA; source_file=external_data/raw_libraries/RIKEN_MONA.xlsx; source_row=116; RT_sec=196.49898
Num Peaks: 60
170.034330 0.600000
195.079820 0.500000
223.086210 0.600000
236.063490 0.500000
239.066410 2.100000
239.077620 0.600000
240.071790 0.800000
240.084110 3.000000
241.078480 0.500000
241.092160 0.800000
252.112110 0.700000
255.076630 0.500000
267.065830 24.100000
268.064850 7.700000
268.077090 9.100000
269.077760 3.500000
270.080870 0.900000
279.070500 3.000000
281.073460 1.900000
281.084720 4.000000
292.073120 1.600000
293.081630 0.600000
295.060490 0.600000
297.075070 38.300000
298.075130 6.000000
298.088960 2.800000
299.070500 1.300000
307.095980 9.600000
307.114750 1.400000
308.099330 1.500000
309.092380 0.600000
311.068940 0.500000
318.583220 0.500000
321.075130 10.100000
322.066470 1.400000
322.081940 1.200000
327.083590 1.200000
333.068360 1.000000
335.089110 3.400000
335.102810 1.400000
345.083800 0.700000
351.076420 4.300000
351.086640 10.100000
352.083440 3.000000
363.056400 0.800000
363.080170 3.200000
363.095490 4.500000
364.087590 1.500000
364.098360 1.100000
365.096250 0.500000
381.098050 10.500000
382.090940 2.200000
382.107510 1.000000
399.073970 0.800000
399.105470 15.000000
400.104310 3.800000
400.116790 1.600000
417.036620 0.700000
417.062960 0.800000
417.116730 100.000000

NAME: Datiscetin-3-O-rutinoside
SCANNUMBER: RIKEN_MONA_117
PRECURSORMZ: 595.165747
PRECURSORTYPE: [M+H]+
IONMODE: Positive
SPECTRUMTYPE: MS2
COLLISIONENERGY: 10 eV
FORMULA: C27H30O15
SMILES: CC1OC(OCC2OC(Oc3c(-c4ccccc4O)oc4cc(O)cc(O)c4c3=O)C(O)C(O)C2O)C(O)C(O)C1O
INCHI: InChI=1S/C27H30O15/c1-9-17(31)20(34)22(36)26(39-9)38-8-15-18(32)21(35)23(37)27(41-15)42-25-19(33)16-13(30)6-10(28)7-14(16)40-24(25)11-4-2-3-5-12(11)29/h2-7,9,15,17-18,20-23,26-32,34-37H,8H2,1H3
INCHIKEY: BJJCTXDEJUWVIC-UHFFFAOYSA-N
RETENTIONTIME: 4.096250
COMMENT: dataset=RIKEN_MONA; source_file=external_data/raw_libraries/RIKEN_MONA.xlsx; source_row=117; RT_sec=245.775
Num Peaks: 42
71.046260 1.500000
85.020860 1.100000
85.025850 1.700000
85.031820 3.000000
91.039820 0.800000
129.047320 0.600000
129.054690 2.500000
130.616300 0.900000
132.112810 0.600000
153.013120 0.900000
154.024670 0.900000
163.050310 1.400000
183.664980 0.600000
243.742520 0.900000
269.045720 0.900000
274.674410 0.700000
281.547180 0.900000
286.609530 0.600000
286.965150 1.000000
287.009190 0.700000
287.024080 1.700000
287.053860 100.000000
288.036070 2.100000
288.054630 7.500000
288.066380 8.000000
288.080510 0.600000
289.058750 2.200000
289.636260 1.100000
290.018590 0.700000
327.035220 0.900000
433.113920 1.700000
433.577360 0.900000
449.091610 2.100000
449.110690 7.700000
449.131500 2.500000
450.108000 0.700000
450.123020 0.800000
451.109380 0.700000
452.095980 0.600000
595.146180 4.100000
595.171810 3.700000
595.197810 0.700000

NAME: Dehydrocorydaline
SCANNUMBER: RIKEN_MONA_118
PRECURSORMZ: 366.169436
PRECURSORTYPE: [M]+
IONMODE: Positive
SPECTRUMTYPE: MS2
COLLISIONENERGY: 10 eV
FORMULA: [C22H24NO4]+
SMILES: COc1cc2c(cc1OC)-c1c(C)c3ccc(OC)c(OC)c3c[n+]1CC2
INCHI: InChI=1S/C22H24NO4/c1-13-15-6-7-18(24-2)22(27-5)17(15)12-23-9-8-14-10-19(25-3)20(26-4)11-16(14)21(13)23/h6-7,10-12H,8-9H2,1-5H3/q+1
INCHIKEY: RFKQJTRWODZPHF-UHFFFAOYSA-N
RETENTIONTIME: 5.194383
COMMENT: dataset=RIKEN_MONA; source_file=external_data/raw_libraries/RIKEN_MONA.xlsx; source_row=118; RT_sec=311.66298
Num Peaks: 32
264.099240 0.600000
278.122990 0.800000
292.103000 1.500000
293.105930 0.600000
305.142000 1.200000
306.115050 5.500000
307.122410 2.600000
308.128020 6.100000
309.130130 1.400000
318.114110 0.700000
319.116490 0.600000
321.146510 0.500000
322.144870 13.300000
323.146420 2.500000
332.095700 0.600000
334.107940 5.100000
334.131960 1.400000
334.147920 1.700000
334.160060 0.800000
335.115260 3.200000
335.151120 1.000000
336.122590 5.400000
337.126220 1.400000
350.099330 0.500000
350.139680 22.300000
351.145690 14.900000
352.151640 3.500000
353.154570 0.900000
366.107790 0.500000
366.123780 0.600000
366.169400 100.000000
366.224060 3.200000

NAME: Dehydrosalsolidine
SCANNUMBER: RIKEN_MONA_119
PRECURSORMZ: 206.117555
PRECURSORTYPE: [M+H]+
IONMODE: Positive
SPECTRUMTYPE: MS2
COLLISIONENERGY: 10 eV
FORMULA: C12H15NO2
SMILES: COc1cc2c(cc1OC)C(C)=NCC2
INCHI: InChI=1S/C12H15NO2/c1-8-10-7-12(15-3)11(14-2)6-9(10)4-5-13-8/h6-7H,4-5H2,1-3H3
INCHIKEY: VASUQTGZAPZKFK-UHFFFAOYSA-N
RETENTIONTIME: 2.931217
COMMENT: dataset=RIKEN_MONA; source_file=external_data/raw_libraries/RIKEN_MONA.xlsx; source_row=119; RT_sec=175.87302
Num Peaks: 19
132.080780 2.200000
144.081160 1.500000
145.082080 1.500000
145.088750 5.300000
146.065220 0.700000
146.087710 0.600000
147.069690 0.600000
160.076510 1.600000
161.078340 0.700000
162.091200 9.500000
173.084630 1.500000
174.091400 2.700000
188.071170 0.700000
189.075760 0.700000
190.087520 23.500000
191.093570 12.000000
192.094860 1.100000
206.117610 100.000000
206.159230 2.300000

NAME: Delphinidin
SCANNUMBER: RIKEN_MONA_120
PRECURSORMZ: 303.049380
PRECURSORTYPE: [M]+
IONMODE: Positive
SPECTRUMTYPE: MS2
COLLISIONENERGY: 10 eV
FORMULA: [C15H11O7]+
SMILES: Oc1cc(O)c2cc(O)c(-c3cc(O)c(O)c(O)c3)[o+]c2c1
INCHI: InChI=1S/C15H10O7/c16-7-3-9(17)8-5-12(20)15(22-13(8)4-7)6-1-10(18)14(21)11(19)2-6/h1-5H,(H5-,16,17,18,19,20,21)/p+1
INCHIKEY: JKHRCGUTYDNCLE-UHFFFAOYSA-O
RETENTIONTIME: 5.374817
COMMENT: dataset=RIKEN_MONA; source_file=external_data/raw_libraries/RIKEN_MONA.xlsx; source_row=120; RT_sec=322.48902
Num Peaks: 67
65.039140 1.000000
68.998480 1.000000
89.038700 0.800000
93.032100 0.700000
109.033270 0.700000
111.001030 0.700000
121.031230 0.500000
123.043830 0.700000
127.054000 0.900000
129.066970 0.600000
131.052190 2.300000
137.001750 1.100000
137.016940 0.700000
137.025910 3.500000
145.032930 0.700000
149.020200 0.700000
153.013140 2.500000
153.020110 3.200000
153.026200 2.600000
154.017320 0.800000
155.028720 0.600000
155.039510 0.500000
155.056810 0.500000
163.075000 0.700000
165.016020 1.500000
173.050160 0.900000
173.062740 2.900000
173.449260 0.700000
176.048680 0.700000
184.039050 1.000000
187.042430 1.200000
196.041980 0.900000
199.899800 1.000000
201.019270 0.700000
201.056810 2.600000
202.056340 0.900000
202.062930 1.500000
203.028520 0.500000
204.047330 1.200000
218.052440 1.000000
219.019850 1.100000
219.057590 1.000000
219.507640 0.500000
228.046360 0.800000
228.851330 0.600000
229.049210 8.100000
230.042330 0.500000
242.341740 0.500000
245.035390 1.000000
247.047620 1.000000
257.036870 1.100000
257.044010 2.800000
257.965880 0.700000
259.054780 0.800000
261.914610 0.700000
270.384520 0.700000
274.043820 0.500000
275.062840 1.200000
275.987000 0.900000
285.035130 0.700000
285.047330 1.600000
286.026670 0.700000
286.039460 2.000000
298.751280 1.300000
301.036710 0.600000
302.049190 0.800000
303.049470 100.000000

NAME: Delphinidin 3-galactoside
SCANNUMBER: RIKEN_MONA_121
PRECURSORMZ: 465.102204
PRECURSORTYPE: [M]+
IONMODE: Positive
SPECTRUMTYPE: MS2
COLLISIONENERGY: 10 eV
FORMULA: [C21H21O12]+
SMILES: OCC1OC(Oc2cc3c(O)cc(O)cc3[o+]c2-c2cc(O)c(O)c(O)c2)C(O)C(O)C1O
INCHI: InChI=1S/C21H20O12/c22-6-15-17(28)18(29)19(30)21(33-15)32-14-5-9-10(24)3-8(23)4-13(9)31-20(14)7-1-11(25)16(27)12(26)2-7/h1-5,15,17-19,21-22,28-30H,6H2,(H4-,23,24,25,26,27)/p+1
INCHIKEY: XENHPQQLDPAYIJ-UHFFFAOYSA-O
RETENTIONTIME: 2.614800
COMMENT: dataset=RIKEN_MONA; source_file=external_data/raw_libraries/RIKEN_MONA.xlsx; source_row=121; RT_sec=156.887999999999
Num Peaks: 11
229.050190 0.500000
257.046020 1.200000
301.041110 0.600000
303.021180 1.100000
303.050900 100.000000
304.054720 13.500000
305.045590 0.500000
305.061370 1.900000
305.070560 0.700000
355.938230 0.700000
465.105040 39.000000

NAME: Delphinidin-3-O-sambubioside
SCANNUMBER: RIKEN_MONA_122
PRECURSORMZ: 597.144463
PRECURSORTYPE: [M]+
IONMODE: Positive
SPECTRUMTYPE: MS2
COLLISIONENERGY: 10 eV
FORMULA: [C26H29O16]+
SMILES: OC[C@H]1O[C@@H](Oc2cc3c(O)cc(O)cc3[o+]c2-c2cc(O)c(O)c(O)c2)[C@H](O[C@@H]2OC[C@@H](O)[C@H](O)[C@H]2O)[C@@H](O)[C@@H]1O
INCHI: InChI=1S/C26H28O16/c27-6-17-20(35)21(36)24(42-25-22(37)19(34)14(32)7-38-25)26(41-17)40-16-5-10-11(29)3-9(28)4-15(10)39-23(16)8-1-12(30)18(33)13(31)2-8/h1-5,14,17,19-22,24-27,32,34-37H,6-7H2,(H4-,28,29,30,31,33)/p+1/t14-,17-,19+,20-,21+,22-,24-,25+,26-/m1/s1
INCHIKEY: TWYYVOVDSNRIJM-AFAGGVQESA-O
RETENTIONTIME: 2.652850
COMMENT: dataset=RIKEN_MONA; source_file=external_data/raw_libraries/RIKEN_MONA.xlsx; source_row=122; RT_sec=159.171
Num Peaks: 17
189.060420 0.600000
213.047200 0.800000
258.052800 0.600000
298.716860 1.000000
302.971370 0.500000
302.981320 1.100000
303.010280 1.500000
303.048800 100.000000
304.038730 7.200000
304.057100 17.000000
305.060060 2.600000
307.056730 0.500000
440.310820 1.300000
586.699280 0.700000
597.147160 44.000000
597.197450 0.700000
597.235840 0.500000

NAME: Deoxyvasicinone
SCANNUMBER: RIKEN_MONA_123
PRECURSORMZ: 187.086589
PRECURSORTYPE: [M+H]+
IONMODE: Positive
SPECTRUMTYPE: MS2
COLLISIONENERGY: 10 eV
FORMULA: C11H10N2O
SMILES: O=c1c2ccccc2nc2n1CCC2
INCHI: InChI=1S/C11H10N2O/c14-11-8-4-1-2-5-9(8)12-10-6-3-7-13(10)11/h1-2,4-5H,3,6-7H2
INCHIKEY: VARHXCYGZKSOOO-UHFFFAOYSA-N
RETENTIONTIME: 3.944700
COMMENT: dataset=RIKEN_MONA; source_file=external_data/raw_libraries/RIKEN_MONA.xlsx; source_row=123; RT_sec=236.682
Num Peaks: 12
77.039730 0.500000
92.049120 0.800000
115.054220 0.800000
116.052360 0.700000
120.044610 0.700000
144.045550 0.700000
144.083390 0.900000
146.057600 0.700000
169.079060 0.600000
185.070570 0.600000
187.086790 100.000000
187.125520 3.100000

NAME: Desoxypeganine
SCANNUMBER: RIKEN_MONA_124
PRECURSORMZ: 173.107325
PRECURSORTYPE: [M+H]+
IONMODE: Positive
SPECTRUMTYPE: MS2
COLLISIONENERGY: 10 eV
FORMULA: C11H12N2
SMILES: c1ccc2c(c1)CN1CCCC1=N2
INCHI: InChI=1S/C11H12N2/c1-2-5-10-9(4-1)8-13-7-3-6-11(13)12-10/h1-2,4-5H,3,6-8H2
INCHIKEY: WUFQLZTXIWKION-UHFFFAOYSA-N
RETENTIONTIME: 2.796783
COMMENT: dataset=RIKEN_MONA; source_file=external_data/raw_libraries/RIKEN_MONA.xlsx; source_row=124; RT_sec=167.80698
Num Peaks: 9
106.065190 1.200000
144.064160 0.900000
144.070920 0.800000
144.081560 0.700000
145.074840 0.800000
171.092210 0.800000
172.097820 0.500000
173.107320 100.000000
173.142440 0.800000

NAME: Digitonin
SCANNUMBER: RIKEN_MONA_125
PRECURSORMZ: 1229.579703
PRECURSORTYPE: [M+H]+
IONMODE: Positive
SPECTRUMTYPE: MS2
COLLISIONENERGY: 10 eV
FORMULA: C56H92O29
SMILES: C[C@H]1[C@H]2[C@@H](O[C@]13CC[C@@H](C)CO3)[C@@H](O)[C@H]1[C@@H]3CC[C@H]4C[C@@H](O[C@@H]5O[C@H](CO)[C@H](O[C@@H]6O[C@H](CO)[C@@H](O)[C@H](O[C@@H]7OC[C@@H](O)[C@H](O)[C@H]7O)[C@H]6O[C@@H]6O[C@H](CO)[C@H](O)[C@H](O[C@@H]7O[C@H](CO)[C@@H](O)[C@H](O)[C@H]7O)[C@H]6O)[C@H](O)[C@H]5O)[C@H](O)C[C@]4(C)[C@H]3CC[C@@]12C
INCHI: InChI=1S/C56H92O29/c1-19-7-10-56(75-17-19)20(2)31-45(85-56)37(67)32-22-6-5-21-11-26(24(61)12-55(21,4)23(22)8-9-54(31,32)3)76-50-42(72)39(69)44(30(16-60)80-50)81-53-48(47(36(66)29(15-59)79-53)83-49-40(70)33(63)25(62)18-74-49)84-52-43(73)46(35(65)28(14-58)78-52)82-51-41(71)38(68)34(64)27(13-57)77-51/h19-53,57-73H,5-18H2,1-4H3/t19-,20+,21+,22-,23+,24-,25-,26-,27-,28-,29-,30-,31+,32-,33+,34-,35+,36-,37+,38+,39-,40-,41-,42-,43-,44+,45-,46+,47+,48-,49+,50-,51+,52+,53+,54-,55+,56-/m1/s1
INCHIKEY: UVYVLBIGDKGWPX-KUAJCENISA-N
RETENTIONTIME: 6.986633
COMMENT: dataset=RIKEN_MONA; source_file=external_data/raw_libraries/RIKEN_MONA.xlsx; source_row=125; RT_sec=419.19798
Num Peaks: 84
108.083040 3.000000
133.044850 2.800000
163.061110 19.000000
163.072970 2.700000
165.125500 3.500000
241.070340 2.700000
277.096560 2.700000
278.030360 2.700000
289.091490 2.700000
289.233890 3.300000
295.057740 2.700000
295.082180 3.200000
295.103420 47.900000
295.121830 9.700000
296.096830 7.000000
307.086580 2.700000
325.112370 52.200000
326.109470 2.800000
327.114930 3.300000
327.129940 3.200000
377.288510 2.700000
396.291080 2.800000
413.319030 2.800000
414.318080 2.700000
426.329010 2.800000
431.313690 51.900000
431.332120 9.500000
432.311550 13.600000
432.328640 5.700000
432.511810 3.300000
449.330810 100.000000
450.319850 12.800000
450.354340 9.200000
451.308810 3.300000
457.151760 17.100000
457.176850 10.100000
458.164730 2.700000
487.174680 8.300000
488.171360 2.700000
489.169490 3.000000
502.264950 3.800000
532.725460 3.800000
557.361450 5.700000
559.304140 2.800000
575.344120 2.800000
581.372740 2.700000
611.342160 7.000000
611.380860 51.200000
612.372310 10.300000
619.170650 2.700000
619.196170 5.300000
619.221860 11.500000
620.213870 8.800000
621.240780 3.800000
649.199460 3.300000
743.418330 6.200000
743.454650 3.300000
773.412900 6.500000
774.438960 7.800000
774.456600 2.700000
775.445310 6.000000
775.472410 3.300000
781.226620 13.800000
781.270450 9.200000
782.278140 2.700000
783.291500 2.800000
905.468380 14.300000
907.488890 2.800000
935.480040 3.300000
936.412480 2.800000
936.475770 7.000000
936.507930 13.000000
1067.518550 13.100000
1067.578120 5.200000
1069.532350 2.800000
1071.942990 2.700000
1097.518070 3.000000
1097.553710 2.700000
1097.600710 3.300000
1098.577390 4.300000
1170.264400 3.200000
1229.511230 5.700000
1229.583620 23.800000
1229.644650 6.800000

NAME: Dihydrohesperetin-7-O-neohesperidoside
SCANNUMBER: RIKEN_MONA_126
PRECURSORMZ: 613.212697
PRECURSORTYPE: [M+H]+
IONMODE: Positive
SPECTRUMTYPE: MS2
COLLISIONENERGY: 10 eV
FORMULA: C28H36O15
SMILES: COc1ccc(CCC(=O)c2c(O)cc(O[C@@H]3O[C@H](CO)[C@@H](O)[C@H](O)[C@H]3O[C@@H]3O[C@@H](C)[C@H](O)[C@@H](O)[C@H]3O)cc2O)cc1O
INCHI: InChI=1S/C28H36O15/c1-11-21(34)23(36)25(38)27(40-11)43-26-24(37)22(35)19(10-29)42-28(26)41-13-8-16(32)20(17(33)9-13)14(30)5-3-12-4-6-18(39-2)15(31)7-12/h4,6-9,11,19,21-29,31-38H,3,5,10H2,1-2H3/t11-,19+,21-,22+,23+,24-,25+,26+,27-,28+/m0/s1
INCHIKEY: ITVGXXMINPYUHD-CUVHLRMHSA-N
RETENTIONTIME: 5.073534
COMMENT: dataset=RIKEN_MONA; source_file=external_data/raw_libraries/RIKEN_MONA.xlsx; source_row=126; RT_sec=304.41204
Num Peaks: 99
85.027320 7.800000
85.032790 3.300000
111.006910 2.500000
115.037640 3.600000
127.041760 2.100000
137.055100 44.000000
137.063020 30.900000
138.071300 7.700000
139.036870 8.100000
151.024030 2.800000
151.039630 3.100000
151.048750 2.600000
178.009120 2.500000
179.011220 8.600000
179.068220 100.000000
180.060170 2.200000
180.078740 5.100000
181.072920 5.900000
191.073470 3.200000
191.081220 3.400000
193.043560 2.800000
197.081760 3.600000
197.812190 3.300000
203.062850 3.200000
205.076350 3.200000
219.052930 3.100000
219.067090 25.200000
237.078060 2.600000
243.091310 2.700000
247.063080 2.200000
283.707730 2.700000
284.072240 2.200000
287.083530 2.900000
289.096070 2.700000
299.096440 3.100000
301.105960 3.100000
305.091710 23.700000
305.107330 55.400000
306.104950 4.400000
313.086180 2.600000
329.084630 13.400000
329.107850 3.300000
337.016110 2.200000
347.025760 2.100000
347.082090 2.200000
347.114560 16.700000
347.135960 2.500000
348.115110 6.000000
365.127500 2.500000
371.104980 8.300000
379.070770 3.600000
379.102140 6.200000
383.132900 4.400000
392.270080 2.100000
397.113280 6.000000
397.130160 6.000000
397.148130 2.100000
398.133180 3.100000
413.099790 2.200000
413.131500 4.000000
414.123870 3.100000
415.145780 12.700000
416.154850 2.500000
417.178830 4.000000
427.158690 2.900000
433.113650 2.200000
433.134830 4.300000
433.149930 6.500000
433.167880 6.900000
434.133030 2.200000
434.148410 4.900000
434.169560 4.500000
434.405820 2.100000
440.385350 2.600000
449.125030 5.100000
451.153660 52.800000
451.177890 18.600000
452.157410 6.700000
452.174190 2.500000
453.147800 8.600000
463.121800 3.600000
467.140170 13.500000
467.155910 5.100000
467.175080 3.700000
468.129390 3.100000
475.183110 2.100000
476.180210 2.500000
491.140810 2.500000
493.173980 2.300000
495.166690 2.500000
541.151490 5.100000
559.186340 3.600000
577.168030 2.500000
595.194090 8.600000
598.195250 3.300000
611.247190 3.300000
613.131040 3.100000
613.213500 51.300000
613.250850 2.800000

NAME: Dihydrokaempferol
SCANNUMBER: RIKEN_MONA_127
PRECURSORMZ: 289.070665
PRECURSORTYPE: [M+H]+
IONMODE: Positive
SPECTRUMTYPE: MS2
COLLISIONENERGY: 10 eV
FORMULA: C15H12O6
SMILES: O=C1c2c(O)cc(O)cc2OC(c2ccc(O)cc2)C1O
INCHI: InChI=1S/C15H12O6/c16-8-3-1-7(2-4-8)15-14(20)13(19)12-10(18)5-9(17)6-11(12)21-15/h1-6,14-18,20H
INCHIKEY: PADQINQHPQKXNL-UHFFFAOYSA-N
RETENTIONTIME: 4.804950
COMMENT: dataset=RIKEN_MONA; source_file=external_data/raw_libraries/RIKEN_MONA.xlsx; source_row=127; RT_sec=288.296999999999
Num Peaks: 103
65.036730 1.000000
91.054420 1.000000
92.054910 1.500000
93.039590 1.500000
95.047860 2.600000
97.029660 1.500000
107.033770 1.900000
107.050060 31.200000
108.047960 1.300000
108.058730 1.000000
109.050310 1.200000
111.005490 1.100000
111.011770 1.500000
111.041910 2.000000
115.060380 1.100000
119.045100 1.100000
119.086880 2.500000
121.027020 2.200000
121.035970 1.400000
121.653660 1.000000
122.030030 2.300000
127.029370 1.200000
127.036330 2.200000
127.043240 1.000000
128.060090 1.200000
131.048860 2.300000
131.084400 2.300000
134.043730 1.100000
135.044050 2.300000
137.019590 1.000000
137.404370 1.000000
139.029910 1.300000
139.038990 1.000000
139.043810 2.000000
139.316010 1.600000
141.064130 2.000000
141.071460 6.600000
144.044940 1.100000
145.062840 3.000000
147.042570 4.100000
147.051500 1.100000
147.076920 2.300000
148.965820 1.400000
149.022800 63.900000
150.030530 7.800000
152.998660 2.200000
153.018880 100.000000
154.011370 1.000000
154.022630 5.100000
155.008820 1.700000
155.047120 1.100000
156.064060 1.100000
163.035510 1.200000
163.044240 2.300000
166.985640 1.100000
167.023160 1.000000
167.033490 7.700000
169.061900 2.900000
169.068070 2.300000
172.049970 1.000000
173.061200 2.700000
181.062760 1.000000
183.083330 1.500000
187.031310 1.000000
187.071930 1.600000
187.079410 2.600000
188.074420 1.000000
189.847310 2.000000
189.969910 1.200000
191.054500 1.300000
193.249980 1.000000
195.006360 2.200000
195.028320 20.700000
195.038960 3.400000
196.039170 1.900000
197.045550 1.100000
197.054700 3.900000
200.048130 1.300000
201.058580 1.600000
215.037120 1.300000
215.069690 82.200000
216.073940 9.400000
217.079130 1.600000
225.015060 1.200000
225.060880 2.100000
242.058290 2.500000
242.067640 1.200000
242.982040 1.600000
243.066070 78.100000
244.060330 8.700000
244.075740 6.300000
244.525340 1.000000
245.070720 1.400000
245.221790 1.100000
248.963990 1.700000
271.061400 39.100000
271.077240 2.900000
271.414760 1.000000
272.062230 4.700000
272.080870 1.000000
273.068300 1.000000
289.045260 1.000000
289.072140 92.100000

NAME: Diosmetin-7-O-neohesperidoside
SCANNUMBER: RIKEN_MONA_128
PRECURSORMZ: 609.181397
PRECURSORTYPE: [M+H]+
IONMODE: Positive
SPECTRUMTYPE: MS2
COLLISIONENERGY: 10 eV
FORMULA: C28H32O15
SMILES: COc1ccc(-c2cc(=O)c3c(O)cc(OC4O[C@H](CO)[C@@H](O)[C@H](O)C4O[C@@H]4O[C@@H](C)[C@H](O)[C@@H](O)[C@H]4O)cc3o2)cc1O
INCHI: InChI=1S/C28H32O15/c1-10-21(33)23(35)25(37)27(39-10)43-26-24(36)22(34)19(9-29)42-28(26)40-12-6-14(31)20-15(32)8-17(41-18(20)7-12)11-3-4-16(38-2)13(30)5-11/h3-8,10,19,21-31,33-37H,9H2,1-2H3/t10-,19+,21-,22+,23+,24-,25+,26?,27-,28?/m0/s1
INCHIKEY: VCCNKWWXYVWTLT-LOYITBPBSA-N
RETENTIONTIME: 4.473150
COMMENT: dataset=RIKEN_MONA; source_file=external_data/raw_libraries/RIKEN_MONA.xlsx; source_row=128; RT_sec=268.389
Num Peaks: 10
286.048070 5.300000
287.055540 0.700000
301.007080 1.000000
301.033200 1.000000
301.071170 100.000000
302.074800 20.900000
303.073360 3.200000
463.118100 0.700000
463.132510 0.600000
609.182430 43.100000

NAME: Diosmetin-7-O-rutinoside
SCANNUMBER: RIKEN_MONA_129
PRECURSORMZ: 609.181397
PRECURSORTYPE: [M+H]+
IONMODE: Positive
SPECTRUMTYPE: MS2
COLLISIONENERGY: 10 eV
FORMULA: C28H32O15
SMILES: COc1ccc(-c2cc(=O)c3c(O)cc(O[C@@H]4O[C@H](CO[C@@H]5O[C@@H](C)[C@H](O)[C@@H](O)[C@H]5O)[C@@H](O)[C@H](O)[C@H]4O)cc3o2)cc1O
INCHI: InChI=1S/C28H32O15/c1-10-21(32)23(34)25(36)27(40-10)39-9-19-22(33)24(35)26(37)28(43-19)41-12-6-14(30)20-15(31)8-17(42-18(20)7-12)11-3-4-16(38-2)13(29)5-11/h3-8,10,19,21-30,32-37H,9H2,1-2H3/t10-,19+,21-,22+,23+,24-,25+,26+,27+,28+/m0/s1
INCHIKEY: GZSOSUNBTXMUFQ-YFAPSIMESA-N
RETENTIONTIME: 4.392750
COMMENT: dataset=RIKEN_MONA; source_file=external_data/raw_libraries/RIKEN_MONA.xlsx; source_row=129; RT_sec=263.565
Num Peaks: 19
85.027850 0.900000
129.052890 0.900000
286.046600 1.700000
287.048550 0.600000
301.014040 0.900000
301.030090 1.400000
301.069890 100.000000
302.051090 1.700000
302.072810 16.600000
302.093170 1.500000
303.080810 2.000000
304.078280 0.600000
463.068940 0.600000
463.121640 41.300000
464.125550 9.700000
465.128570 2.300000
609.096130 0.500000
609.121640 0.900000
609.181700 45.200000

NAME: E-Resveratrol trimethyl ether
SCANNUMBER: RIKEN_MONA_130
PRECURSORMZ: 271.132871
PRECURSORTYPE: [M+H]+
IONMODE: Positive
SPECTRUMTYPE: MS2
COLLISIONENERGY: 10 eV
FORMULA: C17H18O3
SMILES: COc1ccc(/C=C/c2cc(OC)cc(OC)c2)cc1
INCHI: InChI=1S/C17H18O3/c1-18-15-8-6-13(7-9-15)4-5-14-10-16(19-2)12-17(11-14)20-3/h4-12H,1-3H3/b5-4+
INCHIKEY: GDHNBPHYVRHYCC-SNAWJCMRSA-N
RETENTIONTIME: 9.597816
COMMENT: dataset=RIKEN_MONA; source_file=external_data/raw_libraries/RIKEN_MONA.xlsx; source_row=130; RT_sec=575.86896
Num Peaks: 96
79.053960 0.500000
91.055150 4.700000
92.057990 0.700000
105.069830 1.500000
107.054280 0.500000
109.061270 0.700000
111.044990 0.700000
117.066720 0.500000
117.072710 0.700000
118.042790 0.700000
120.058900 0.600000
121.065400 5.200000
122.074910 1.000000
132.056670 0.800000
133.026610 1.000000
133.065260 1.300000
135.042710 1.800000
135.081420 4.900000
137.062290 2.800000
147.080860 10.900000
148.082150 1.000000
149.061170 1.000000
151.046940 0.700000
151.077120 2.100000
152.059250 0.600000
152.065480 1.600000
153.070280 2.000000
154.076860 2.100000
159.082380 1.500000
163.076370 2.300000
164.059190 0.600000
165.068270 3.800000
165.082410 0.700000
166.071380 1.800000
166.079250 1.600000
167.085970 0.900000
171.081620 0.600000
173.098660 1.300000
177.071990 0.600000
177.087400 0.700000
178.079180 1.500000
179.090180 0.800000
181.052470 0.600000
181.064910 3.400000
181.072010 1.100000
182.068910 1.400000
182.079470 0.800000
185.095370 0.500000
193.069060 1.500000
194.067550 0.700000
195.079190 3.500000
195.089950 0.600000
196.081480 1.800000
196.092150 2.300000
197.094860 2.500000
198.061750 0.800000
199.070850 0.600000
208.086410 0.700000
209.051740 0.800000
209.063030 1.700000
209.091480 0.800000
209.111180 0.900000
210.055860 0.600000
210.069780 0.800000
210.103150 1.100000
211.075730 0.600000
211.111800 1.100000
212.082240 1.200000
213.088180 1.100000
213.098600 0.900000
223.077210 1.500000
224.077850 1.600000
224.085920 3.800000
225.090060 4.100000
226.098720 1.400000
227.101820 1.000000
227.110050 0.800000
239.107420 8.000000
240.109760 2.500000
240.120700 2.800000
241.074070 0.700000
241.087660 2.400000
241.098660 0.800000
241.111270 1.100000
241.126400 0.700000
243.143660 0.900000
255.107670 1.300000
256.105710 2.700000
257.105070 0.600000
257.119230 0.600000
269.122250 0.800000
270.110500 0.900000
270.127500 9.800000
271.085780 0.800000
271.133120 100.000000
271.180210 1.100000

NAME: Echinocystic acid-3-O-glucoside
SCANNUMBER: RIKEN_MONA_131
PRECURSORMZ: 633.400807
PRECURSORTYPE: [M-H]-
IONMODE: Negative
SPECTRUMTYPE: MS2
COLLISIONENERGY: 10 eV
FORMULA: C36H58O9
SMILES: CC1(C)CCC2(C(=O)O)C(O)CC3(C)C(=CCC4C5(C)CCC(OC6OC(CO)C(O)C(O)C6O)C(C)(C)C5CCC43C)C2C1
INCHI: InChI=1S/C36H58O9/c1-31(2)14-15-36(30(42)43)20(16-31)19-8-9-23-33(5)12-11-25(45-29-28(41)27(40)26(39)21(18-37)44-29)32(3,4)22(33)10-13-34(23,6)35(19,7)17-24(36)38/h8,20-29,37-41H,9-18H2,1-7H3,(H,42,43)
INCHIKEY: WYDPEADEZMZKNM-UHFFFAOYSA-N
RETENTIONTIME: 7.332083
COMMENT: dataset=RIKEN_MONA; source_file=external_data/raw_libraries/RIKEN_MONA.xlsx; source_row=131; RT_sec=439.92498
Num Peaks: 6
71.011700 1.100000
101.023450 1.600000
113.025210 0.700000
161.045820 0.800000
587.394230 1.000000
633.401670 100.000000

NAME: Eleutheroside E
SCANNUMBER: RIKEN_MONA_132
PRECURSORMZ: 741.261138
PRECURSORTYPE: [M-H]-
IONMODE: Negative
SPECTRUMTYPE: MS2
COLLISIONENERGY: 10 eV
FORMULA: C34H46O18
SMILES: COc1cc(C2OCC3C(c4cc(OC)c(OC5OC(CO)C(O)C(O)C5O)c(OC)c4)OCC23)cc(OC)c1OC1OC(CO)C(O)C(O)C1O
INCHI: InChI=1S/C34H46O18/c1-43-17-5-13(6-18(44-2)31(17)51-33-27(41)25(39)23(37)21(9-35)49-33)29-15-11-48-30(16(15)12-47-29)14-7-19(45-3)32(20(8-14)46-4)52-34-28(42)26(40)24(38)22(10-36)50-34/h5-8,15-16,21-30,33-42H,9-12H2,1-4H3
INCHIKEY: FFDULTAFAQRACT-UHFFFAOYSA-N
RETENTIONTIME: 3.614533
COMMENT: dataset=RIKEN_MONA; source_file=external_data/raw_libraries/RIKEN_MONA.xlsx; source_row=132; RT_sec=216.87198
Num Peaks: 26
166.034320 0.500000
181.048550 12.000000
181.062070 1.800000
182.048950 0.700000
208.723820 0.500000
218.279590 0.600000
262.306670 0.900000
360.750550 0.600000
370.324190 0.500000
402.133940 3.100000
403.128690 0.700000
409.781370 0.500000
417.153960 100.000000
417.183870 1.100000
418.154140 16.900000
418.168000 6.100000
419.156220 2.800000
419.173100 1.600000
562.767460 0.500000
579.207890 56.300000
580.210570 18.200000
581.170100 0.500000
581.207150 4.300000
581.222720 3.600000
693.198430 0.500000
741.260440 4.400000

NAME: Ellipticine
SCANNUMBER: RIKEN_MONA_133
PRECURSORMZ: 247.122975
PRECURSORTYPE: [M+H]+
IONMODE: Positive
SPECTRUMTYPE: MS2
COLLISIONENERGY: 10 eV
FORMULA: C17H14N2
SMILES: Cc1c2ccncc2c(C)c2c1[nH]c1ccccc12
INCHI: InChI=1S/C17H14N2/c1-10-14-9-18-8-7-12(14)11(2)17-16(10)13-5-3-4-6-15(13)19-17/h3-9,19H,1-2H3
INCHIKEY: CTSPAMFJBXKSOY-UHFFFAOYSA-N
RETENTIONTIME: 4.933183
COMMENT: dataset=RIKEN_MONA; source_file=external_data/raw_libraries/RIKEN_MONA.xlsx; source_row=133; RT_sec=295.99098
Num Peaks: 9
204.083800 3.000000
230.087860 0.500000
231.090910 11.800000
232.099350 24.200000
233.103840 3.500000
245.097520 0.500000
245.107990 1.200000
246.115450 1.800000
247.122800 100.000000

NAME: Emetine
SCANNUMBER: RIKEN_MONA_134
PRECURSORMZ: 481.306084
PRECURSORTYPE: [M+H]+
IONMODE: Positive
SPECTRUMTYPE: MS2
COLLISIONENERGY: 10 eV
FORMULA: C29H40N2O4
SMILES: CC[C@H]1CN2CCc3cc(OC)c(OC)cc3[C@@H]2C[C@@H]1C[C@H]1NCCc2cc(OC)c(OC)cc21
INCHI: InChI=1S/C29H40N2O4/c1-6-18-17-31-10-8-20-14-27(33-3)29(35-5)16-23(20)25(31)12-21(18)11-24-22-15-28(34-4)26(32-2)13-19(22)7-9-30-24/h13-16,18,21,24-25,30H,6-12,17H2,1-5H3/t18-,21-,24+,25-/m0/s1
INCHIKEY: AUVVAXYIELKVAI-CKBKHPSWSA-N
RETENTIONTIME: 3.412183
COMMENT: dataset=RIKEN_MONA; source_file=external_data/raw_libraries/RIKEN_MONA.xlsx; source_row=134; RT_sec=204.73098
Num Peaks: 56
68.055390 0.600000
141.065050 1.100000
161.090210 0.500000
164.073840 0.600000
165.088850 0.800000
177.083970 2.200000
177.093770 1.700000
178.095340 0.500000
179.105770 1.000000
189.096410 1.200000
191.095890 1.000000
191.106840 1.500000
192.105000 5.500000
195.125170 0.600000
203.105530 1.600000
204.102970 0.700000
205.111040 1.700000
206.107530 1.000000
206.119690 1.000000
219.132920 0.700000
226.144260 0.600000
230.115360 0.600000
240.146450 0.800000
244.136350 0.900000
246.151020 13.100000
247.144360 1.500000
247.155550 0.600000
247.167110 0.500000
259.178040 0.600000
270.096770 0.600000
272.158940 4.500000
272.174770 1.600000
273.159420 1.700000
274.180510 10.300000
275.197940 0.900000
286.169280 0.800000
300.197050 1.600000
304.139250 0.600000
395.239690 0.700000
434.245270 0.900000
436.216800 0.500000
436.255980 1.500000
447.238650 0.700000
452.293370 0.500000
455.805390 0.600000
464.272640 5.700000
464.297060 1.000000
465.256200 1.000000
465.276340 1.000000
465.302000 1.000000
466.252590 0.500000
466.280640 1.400000
479.288060 3.500000
480.288120 2.000000
481.255830 1.600000
481.307950 100.000000

NAME: Enterodiol
SCANNUMBER: RIKEN_MONA_135
PRECURSORMZ: 303.159086
PRECURSORTYPE: [M+H]+
IONMODE: Positive
SPECTRUMTYPE: MS2
COLLISIONENERGY: 10 eV
FORMULA: C18H22O4
SMILES: OC[C@H](Cc1cccc(O)c1)[C@H](CO)Cc1cccc(O)c1
INCHI: InChI=1S/C18H22O4/c19-11-15(7-13-3-1-5-17(21)9-13)16(12-20)8-14-4-2-6-18(22)10-14/h1-6,9-10,15-16,19-22H,7-8,11-12H2/t15-,16-/m0/s1
INCHIKEY: DWONJCNDULPHLV-HOTGVXAUSA-N
RETENTIONTIME: 5.261950
COMMENT: dataset=RIKEN_MONA; source_file=external_data/raw_libraries/RIKEN_MONA.xlsx; source_row=135; RT_sec=315.717
Num Peaks: 33
91.053430 3.900000
107.047520 100.000000
107.055620 15.600000
108.047640 6.700000
108.054250 4.500000
115.051440 2.800000
120.083460 2.800000
121.065510 12.500000
131.088030 5.900000
132.058120 5.500000
132.096760 3.100000
133.047520 5.000000
133.063920 26.500000
133.087810 3.100000
135.072110 5.000000
145.069720 4.400000
148.081150 3.300000
148.365220 4.500000
148.940700 4.700000
149.090700 3.300000
158.320980 2.800000
159.077940 31.500000
159.095280 3.300000
161.090150 3.700000
177.090210 3.400000
255.133330 3.100000
267.132350 84.100000
267.148190 14.700000
268.128810 7.500000
268.139620 15.100000
285.145480 11.700000
287.151670 3.100000
303.153440 3.400000

NAME: Enterolactone
SCANNUMBER: RIKEN_MONA_136
PRECURSORMZ: 299.127786
PRECURSORTYPE: [M+H]+
IONMODE: Positive
SPECTRUMTYPE: MS2
COLLISIONENERGY: 10 eV
FORMULA: C18H18O4
SMILES: O=C1OC[C@@H](Cc2cccc(O)c2)[C@@H]1Cc1cccc(O)c1
INCHI: InChI=1S/C18H18O4/c19-15-5-1-3-12(8-15)7-14-11-22-18(21)17(14)10-13-4-2-6-16(20)9-13/h1-6,8-9,14,17,19-20H,7,10-11H2/t14-,17+/m1/s1
INCHIKEY: HVDGDHBAMCBBLR-PBHICJAKSA-N
RETENTIONTIME: 6.179266
COMMENT: dataset=RIKEN_MONA; source_file=external_data/raw_libraries/RIKEN_MONA.xlsx; source_row=136; RT_sec=370.75596
Num Peaks: 79
77.006930 0.700000
77.038590 0.600000
79.051150 0.700000
93.066840 0.700000
97.708830 0.700000
98.157720 1.400000
103.053460 1.500000
105.070980 3.400000
107.024840 0.600000
107.039650 2.600000
107.050030 50.900000
108.047640 0.600000
109.070910 0.600000
116.056780 0.700000
117.068700 0.600000
121.060870 1.100000
121.072220 0.700000
129.074480 0.900000
131.088390 0.700000
133.036850 0.700000
133.065290 100.000000
134.066240 4.000000
134.071760 3.400000
135.037670 0.600000
135.045460 0.600000
141.064940 1.100000
141.075580 0.800000
145.037320 0.600000
145.052090 0.600000
145.067490 8.000000
146.071750 0.900000
147.080660 1.200000
149.059590 7.700000
151.035020 1.100000
151.243800 0.600000
159.073650 0.600000
170.058440 0.800000
178.078890 1.600000
181.095520 0.600000
185.319630 0.700000
190.078520 1.400000
196.070880 0.700000
205.085830 0.600000
207.079220 0.600000
207.097470 0.700000
215.097550 0.700000
217.091710 0.600000
217.104200 1.200000
218.077880 0.600000
219.088650 0.600000
220.093020 0.700000
226.078810 1.200000
227.097690 1.200000
232.680970 0.600000
233.091290 1.800000
235.081210 0.700000
235.111270 1.200000
244.098880 0.600000
245.086620 2.900000
245.097610 3.100000
245.107480 2.500000
248.073940 2.200000
248.088790 0.600000
249.077820 1.200000
253.119840 1.700000
255.132860 0.600000
263.108730 23.300000
263.649570 0.600000
264.103450 0.800000
281.071660 0.600000
281.098240 1.100000
281.118710 45.500000
281.285250 1.400000
281.491610 0.700000
282.121580 5.500000
283.124420 1.200000
290.684170 0.800000
299.095460 0.600000
299.128200 54.800000

NAME: Epigallocatechin-3-gallate
SCANNUMBER: RIKEN_MONA_137
PRECURSORMZ: 459.092188
PRECURSORTYPE: [M+H]+
IONMODE: Positive
SPECTRUMTYPE: MS2
COLLISIONENERGY: 10 eV
FORMULA: C22H18O11
SMILES: O=C(O[C@@H]1Cc2c(O)cc(O)cc2O[C@@H]1c1cc(O)c(O)c(O)c1)c1cc(O)c(O)c(O)c1
INCHI: InChI=1S/C22H18O11/c23-10-5-12(24)11-7-18(33-22(31)9-3-15(27)20(30)16(28)4-9)21(32-17(11)6-10)8-1-13(25)19(29)14(26)2-8/h1-6,18,21,23-30H,7H2/t18-,21-/m1/s1
INCHIKEY: WMBWREPUVVBILR-WIYYLYMNSA-N
RETENTIONTIME: 3.464000
COMMENT: dataset=RIKEN_MONA; source_file=external_data/raw_libraries/RIKEN_MONA.xlsx; source_row=137; RT_sec=207.84
Num Peaks: 28
111.019780 2.300000
122.034790 2.400000
123.049270 6.700000
139.010620 1.900000
139.038730 100.000000
140.040920 5.800000
140.047200 9.000000
140.054890 4.600000
141.046010 1.900000
151.018420 2.400000
151.038850 14.300000
153.006640 3.800000
153.015490 13.600000
163.006010 3.600000
163.021640 2.000000
163.039250 2.900000
181.034440 2.000000
197.052510 2.800000
259.066530 1.800000
275.065340 2.100000
289.048950 5.400000
289.068270 26.600000
289.081970 6.400000
290.060880 2.600000
290.072910 4.000000
307.093540 3.100000
459.085420 10.100000
459.101810 13.700000

NAME: Eriodictyol
SCANNUMBER: RIKEN_MONA_138
PRECURSORMZ: 289.070665
PRECURSORTYPE: [M+H]+
IONMODE: Positive
SPECTRUMTYPE: MS2
COLLISIONENERGY: 10 eV
FORMULA: C15H12O6
SMILES: O=C1C[C@@H](c2ccc(O)c(O)c2)Oc2cc(O)cc(O)c21
INCHI: InChI=1S/C15H12O6/c16-8-4-11(19)15-12(20)6-13(21-14(15)5-8)7-1-2-9(17)10(18)3-7/h1-5,13,16-19H,6H2/t13-/m0/s1
INCHIKEY: SBHXYTNGIZCORC-ZDUSSCGKSA-N
RETENTIONTIME: 5.349916
COMMENT: dataset=RIKEN_MONA; source_file=external_data/raw_libraries/RIKEN_MONA.xlsx; source_row=138; RT_sec=320.99496
Num Peaks: 35
69.028360 0.600000
69.033780 0.800000
89.033780 0.600000
89.039440 1.800000
97.025700 0.500000
107.046380 1.100000
111.005780 0.900000
114.649700 0.500000
117.026110 0.900000
117.033710 4.500000
123.046820 1.200000
135.040790 4.100000
135.046080 2.200000
136.053710 0.900000
137.056820 0.600000
139.035310 0.700000
145.027500 8.100000
151.036830 0.700000
153.017400 51.400000
154.006290 1.000000
154.021500 5.500000
155.016530 0.900000
163.038270 36.300000
164.038420 5.200000
165.040340 0.600000
179.026410 1.100000
179.037140 2.200000
180.037960 0.600000
187.028760 0.800000
187.042820 1.500000
271.058720 1.300000
287.044070 1.900000
287.061680 0.600000
289.068080 100.000000
289.109800 0.700000

NAME: Eriodictyol-7-O-glucoside
SCANNUMBER: RIKEN_MONA_139
PRECURSORMZ: 451.123488
PRECURSORTYPE: [M+H]+
IONMODE: Positive
SPECTRUMTYPE: MS2
COLLISIONENERGY: 10 eV
FORMULA: C21H22O11
SMILES: O=C1CC(c2ccc(O)c(O)c2)Oc2cc(O[C@@H]3O[C@H](CO)[C@@H](O)[C@H](O)[C@H]3O)cc(O)c21
INCHI: InChI=1S/C21H22O11/c22-7-16-18(27)19(28)20(29)21(32-16)30-9-4-12(25)17-13(26)6-14(31-15(17)5-9)8-1-2-10(23)11(24)3-8/h1-5,14,16,18-25,27-29H,6-7H2/t14?,16-,18-,19+,20-,21-/m1/s1
INCHIKEY: RAFHNDRXYHOLSH-RGHIGTIISA-N
RETENTIONTIME: 4.092834
COMMENT: dataset=RIKEN_MONA; source_file=external_data/raw_libraries/RIKEN_MONA.xlsx; source_row=139; RT_sec=245.57004
Num Peaks: 47
123.044140 2.100000
137.017330 0.800000
137.055070 0.600000
145.031280 1.500000
153.017240 25.200000
154.010850 0.900000
154.020950 0.600000
154.028110 1.000000
155.004060 0.500000
163.037050 12.800000
163.048900 1.400000
164.038680 1.400000
164.045520 0.800000
165.011980 0.800000
165.039600 1.300000
167.036130 0.900000
177.021420 0.600000
179.036070 1.700000
187.040130 1.200000
197.050050 0.800000
211.799930 0.700000
217.097760 0.600000
229.429050 0.700000
231.028750 1.900000
236.003160 0.500000
241.082370 0.900000
253.046880 0.600000
259.056240 0.600000
271.053190 0.600000
271.063390 0.600000
271.073030 0.700000
272.058140 1.700000
288.051210 0.900000
288.543060 0.600000
289.026120 0.700000
289.036350 1.700000
289.070100 100.000000
289.995880 0.600000
290.051360 2.300000
290.073180 19.800000
291.077760 2.100000
301.064270 1.500000
314.069060 1.500000
331.074620 0.600000
341.335140 0.700000
451.072810 1.900000
451.125980 6.400000

NAME: Eriodictyol-7-O-neohesperidoside
SCANNUMBER: RIKEN_MONA_140
PRECURSORMZ: 597.181397
PRECURSORTYPE: [M+H]+
IONMODE: Positive
SPECTRUMTYPE: MS2
COLLISIONENERGY: 10 eV
FORMULA: C27H32O15
SMILES: C[C@@H]1O[C@@H](O[C@H]2[C@H](Oc3cc(O)c4c(c3)O[C@H](c3ccc(O)c(O)c3)CC4=O)O[C@H](CO)[C@@H](O)[C@@H]2O)[C@H](O)[C@H](O)[C@H]1O
INCHI: InChI=1S/C27H32O15/c1-9-20(33)22(35)24(37)26(38-9)42-25-23(36)21(34)18(8-28)41-27(25)39-11-5-14(31)19-15(32)7-16(40-17(19)6-11)10-2-3-12(29)13(30)4-10/h2-6,9,16,18,20-31,33-37H,7-8H2,1H3/t9-,16-,18+,20-,21+,22+,23-,24+,25+,26-,27+/m0/s1
INCHIKEY: OBKKEZLIABHSGY-DOYQYKRZSA-N
RETENTIONTIME: 4.043083
COMMENT: dataset=RIKEN_MONA; source_file=external_data/raw_libraries/RIKEN_MONA.xlsx; source_row=140; RT_sec=242.58498
Num Peaks: 63
85.024480 5.200000
85.031490 3.100000
87.033780 1.800000
98.309470 1.900000
147.063510 2.400000
148.067700 3.000000
153.008420 2.900000
153.017820 11.600000
163.031200 2.500000
163.039520 6.500000
175.038220 2.900000
177.983690 5.200000
179.042950 3.300000
195.026060 16.600000
204.038710 4.200000
219.023820 4.300000
220.015850 1.900000
225.047180 3.100000
245.042070 2.200000
249.035610 2.700000
255.079760 1.800000
263.049840 2.400000
281.061680 8.400000
288.063140 3.700000
289.071350 100.000000
290.079190 14.800000
301.052800 2.900000
301.067440 4.700000
313.067840 4.000000
315.070530 1.900000
328.895870 2.100000
331.060820 5.100000
331.353700 3.000000
332.095760 7.700000
339.099580 2.600000
355.079990 6.400000
381.069240 3.500000
382.067780 4.500000
399.102870 6.100000
399.120700 7.900000
400.103030 2.900000
416.108760 4.300000
417.110960 12.200000
418.084440 2.400000
418.096830 2.900000
425.104370 3.400000
433.089970 5.000000
433.115750 5.500000
435.095460 2.700000
435.122620 8.200000
435.135830 14.800000
436.138610 8.200000
437.134190 2.600000
445.501710 2.400000
450.121030 2.100000
451.081600 2.100000
451.124180 21.800000
452.138060 2.000000
475.137360 4.000000
561.182190 1.900000
579.197750 2.900000
597.146480 1.800000
597.187130 12.700000

NAME: Eriodictyol-7-O-rutinoside
SCANNUMBER: RIKEN_MONA_141
PRECURSORMZ: 597.181397
PRECURSORTYPE: [M+H]+
IONMODE: Positive
SPECTRUMTYPE: MS2
COLLISIONENERGY: 10 eV
FORMULA: C27H32O15
SMILES: C[C@@H]1O[C@@H](OC[C@H]2O[C@@H](Oc3cc(O)c4c(c3)O[C@H](c3ccc(O)c(O)c3)CC4=O)[C@H](O)[C@@H](O)[C@@H]2O)[C@H](O)[C@H](O)[C@H]1O
INCHI: InChI=1S/C27H32O15/c1-9-20(32)22(34)24(36)26(39-9)38-8-18-21(33)23(35)25(37)27(42-18)40-11-5-14(30)19-15(31)7-16(41-17(19)6-11)10-2-3-12(28)13(29)4-10/h2-6,9,16,18,20-30,32-37H,7-8H2,1H3/t9-,16-,18+,20-,21+,22+,23-,24+,25+,26+,27+/m0/s1
INCHIKEY: OMQADRGFMLGFJF-MNPJBKLOSA-N
RETENTIONTIME: 3.916283
COMMENT: dataset=RIKEN_MONA; source_file=external_data/raw_libraries/RIKEN_MONA.xlsx; source_row=141; RT_sec=234.97698
Num Peaks: 84
85.026250 10.900000
85.032200 14.500000
129.013760 3.500000
129.048610 6.000000
129.053300 16.300000
129.120420 2.600000
135.037230 3.900000
145.030930 3.100000
147.061870 5.700000
148.072170 4.300000
153.012910 2.400000
153.022800 9.800000
163.026870 4.200000
163.041700 13.400000
165.025540 3.500000
195.029170 10.100000
203.032290 4.200000
219.025940 3.700000
219.038540 2.600000
245.032320 3.300000
253.045230 2.900000
262.047360 2.400000
263.046910 17.100000
263.064730 4.300000
272.212860 2.200000
281.042020 2.400000
287.057650 3.900000
289.034420 2.600000
289.068270 100.000000
289.080870 42.300000
290.061830 2.800000
290.069520 8.400000
290.089200 5.000000
291.054140 4.000000
301.048280 4.200000
301.062500 3.100000
331.072810 3.200000
331.087400 15.400000
332.070470 2.200000
348.071870 3.500000
353.073270 2.700000
355.021550 2.100000
355.053530 2.600000
355.100890 3.400000
381.076510 2.200000
381.103550 3.100000
388.973630 2.700000
397.099060 2.200000
398.628510 2.100000
399.098750 2.300000
399.121150 3.200000
400.105590 3.200000
401.105410 2.200000
417.024570 4.200000
417.114230 8.100000
418.111420 4.600000
419.111760 2.300000
425.111300 3.300000
433.118620 5.500000
434.090030 3.500000
434.107820 3.500000
435.093840 4.400000
435.116390 14.400000
435.136470 22.700000
436.133180 12.000000
436.147370 9.400000
450.107850 6.700000
451.122310 27.100000
452.118100 5.400000
452.132600 2.600000
460.145260 2.800000
475.097260 2.300000
475.143070 3.200000
476.105770 2.100000
476.126220 2.900000
476.143980 3.900000
479.131500 3.400000
595.094360 3.800000
595.153200 3.100000
596.152650 2.200000
597.134160 2.400000
597.170900 21.000000
597.195920 9.200000
597.223690 2.300000

NAME: Ethylbeta-carboline
SCANNUMBER: RIKEN_MONA_142
PRECURSORMZ: 197.107325
PRECURSORTYPE: [M+H]+
IONMODE: Positive
SPECTRUMTYPE: MS2
COLLISIONENERGY: 10 eV
FORMULA: C13H12N2
SMILES: CCc1nccc2c1[nH]c1ccccc12
INCHI: InChI=1S/C13H12N2/c1-2-11-13-10(7-8-14-11)9-5-3-4-6-12(9)15-13/h3-8,15H,2H2,1H3
INCHIKEY: YTQRHYCHEIXUIU-UHFFFAOYSA-N
RETENTIONTIME: 4.007000
COMMENT: dataset=RIKEN_MONA; source_file=external_data/raw_libraries/RIKEN_MONA.xlsx; source_row=142; RT_sec=240.42
Num Peaks: 9
115.054480 0.700000
154.067140 2.700000
155.070330 1.700000
169.076100 1.500000
181.078450 3.900000
182.084660 28.400000
183.089340 4.600000
197.108380 100.000000
197.148120 3.500000

NAME: Ethylrhoeagenine
SCANNUMBER: RIKEN_MONA_143
PRECURSORMZ: 398.159814
PRECURSORTYPE: [M+H]+
IONMODE: Positive
SPECTRUMTYPE: MS2
COLLISIONENERGY: 10 eV
FORMULA: C22H23NO6
SMILES: CCO[C@H]1O[C@@H]2c3cc4c(cc3CCN(C)[C@@H]2c2ccc3c(c21)OCO3)OCO4
INCHI: InChI=1S/C22H23NO6/c1-3-24-22-18-13(4-5-15-21(18)28-11-25-15)19-20(29-22)14-9-17-16(26-10-27-17)8-12(14)6-7-23(19)2/h4-5,8-9,19-20,22H,3,6-7,10-11H2,1-2H3/t19-,20-,22+/m1/s1
INCHIKEY: RKBDCPZCGRWNMP-SJBKTWHCSA-N
RETENTIONTIME: 5.150367
COMMENT: dataset=RIKEN_MONA; source_file=external_data/raw_libraries/RIKEN_MONA.xlsx; source_row=143; RT_sec=309.02202
Num Peaks: 82
135.044390 0.600000
148.056240 0.600000
149.059010 2.500000
161.043930 0.700000
163.075580 1.200000
175.060350 0.500000
176.068330 0.700000
178.080570 0.600000
188.071010 23.300000
189.075120 8.200000
190.040800 0.800000
190.049650 2.100000
190.086790 48.600000
191.088290 7.200000
205.058470 1.100000
205.069610 1.200000
223.069900 0.600000
233.059310 2.300000
233.069290 0.700000
234.062650 0.800000
235.070620 2.600000
235.088200 1.000000
237.111980 0.900000
247.076550 1.600000
248.102480 0.500000
261.048280 1.200000
261.062230 1.100000
263.069790 1.800000
264.068510 0.900000
275.073550 1.600000
276.099820 1.100000
276.112270 0.700000
279.065730 0.700000
290.082090 0.600000
291.067840 2.900000
292.104890 0.800000
293.071590 1.500000
293.085510 1.600000
294.087070 0.600000
294.111480 0.800000
295.110990 0.600000
303.049900 2.300000
303.066800 5.000000
304.062470 0.900000
304.076020 0.800000
304.100770 0.800000
305.088260 0.500000
308.087740 0.600000
308.103910 0.700000
309.064360 0.900000
309.075560 0.700000
309.098540 1.200000
318.073150 0.800000
319.079100 0.900000
319.089970 0.700000
320.092100 12.100000
321.069490 0.600000
321.092930 3.800000
321.104860 1.500000
322.077060 0.600000
322.092900 0.600000
322.107570 1.100000
323.086240 1.100000
324.120480 1.700000
334.108490 14.700000
335.104430 1.300000
335.114290 3.400000
336.099910 1.100000
337.085570 0.900000
337.102170 1.200000
352.054290 0.700000
352.074250 1.200000
352.118380 100.000000
353.121830 24.800000
354.118930 2.400000
354.132540 1.600000
380.144320 1.800000
380.160920 1.000000
381.156310 0.500000
398.104890 0.500000
398.123320 0.900000
398.158970 80.800000

NAME: Etoposide
SCANNUMBER: RIKEN_MONA_144
PRECURSORMZ: 589.191568
PRECURSORTYPE: [M+H]+
IONMODE: Positive
SPECTRUMTYPE: MS2
COLLISIONENERGY: 10 eV
FORMULA: C29H32O13
SMILES: COc1cc([C@@H]2c3cc4c(cc3[C@@H](O[C@@H]3O[C@@H]5CO[C@@H](C)O[C@H]5[C@H](O)[C@H]3O)[C@H]3COC(=O)[C@H]23)OCO4)cc(OC)c1O
INCHI: InChI=1S/C29H32O13/c1-11-36-9-20-27(40-11)24(31)25(32)29(41-20)42-26-14-7-17-16(38-10-39-17)6-13(14)21(22-15(26)8-37-28(22)33)12-4-18(34-2)23(30)19(5-12)35-3/h4-7,11,15,20-22,24-27,29-32H,8-10H2,1-3H3/t11-,15+,20-,21-,22+,24-,25-,26-,27-,29+/m1/s1
INCHIKEY: VJJPUSNTGOMMGY-MRVIYFEKSA-N
RETENTIONTIME: 5.401000
COMMENT: dataset=RIKEN_MONA; source_file=external_data/raw_libraries/RIKEN_MONA.xlsx; source_row=144; RT_sec=324.06
Num Peaks: 35
99.047330 0.600000
144.061130 0.500000
154.053540 0.600000
173.061490 3.800000
185.059170 38.800000
186.059170 2.100000
186.067980 1.600000
199.032300 0.800000
201.049760 0.600000
217.047780 1.500000
217.058140 0.600000
229.024950 0.500000
229.050740 100.000000
229.118210 0.700000
230.054090 17.800000
231.047240 1.100000
231.058760 1.100000
247.038040 0.900000
247.063510 9.500000
248.061600 1.300000
267.070530 1.100000
275.071410 1.000000
323.086240 0.500000
365.105770 1.100000
383.086980 0.500000
383.110570 4.600000
383.125310 1.000000
384.114720 1.000000
384.137660 0.500000
435.126130 11.400000
436.122740 2.000000
571.179810 0.600000
588.172000 3.700000
588.191350 1.500000
589.192080 15.800000

NAME: Evodiamine
SCANNUMBER: RIKEN_MONA_145
PRECURSORMZ: 304.144439
PRECURSORTYPE: [M+H]+
IONMODE: Positive
SPECTRUMTYPE: MS2
COLLISIONENERGY: 10 eV
FORMULA: C19H17N3O
SMILES: CN1c2ccccc2C(=O)N2CCc3c([nH]c4ccccc34)[C@H]21
INCHI: InChI=1S/C19H17N3O/c1-21-16-9-5-3-7-14(16)19(23)22-11-10-13-12-6-2-4-8-15(12)20-17(13)18(21)22/h2-9,18,20H,10-11H2,1H3/t18-/m0/s1
INCHIKEY: TXDUTHBFYKGSAH-SFHVURJKSA-N
RETENTIONTIME: 7.771133
COMMENT: dataset=RIKEN_MONA; source_file=external_data/raw_libraries/RIKEN_MONA.xlsx; source_row=145; RT_sec=466.267979999999
Num Peaks: 38
77.039970 1.400000
91.053880 2.400000
92.057350 0.500000
105.030850 0.700000
106.066020 6.300000
116.042500 1.100000
116.050540 6.900000
118.064070 2.700000
118.070300 1.200000
120.047350 0.800000
120.080830 1.100000
130.062360 0.600000
134.024510 0.700000
134.037200 1.100000
134.060560 100.000000
135.063170 9.500000
136.062730 0.600000
143.075610 1.400000
144.081190 21.100000
145.084230 2.100000
154.060650 0.700000
154.069240 1.300000
156.067230 0.800000
161.070720 14.300000
162.074040 1.800000
171.091810 44.600000
172.094770 6.000000
217.088840 0.500000
233.106550 0.600000
286.099270 1.700000
287.102510 1.100000
287.124690 0.500000
302.130740 3.100000
303.133730 3.700000
303.146550 1.300000
304.075230 0.700000
304.145540 79.200000
304.193940 1.400000

NAME: Flavanone
SCANNUMBER: RIKEN_MONA_146
PRECURSORMZ: 225.091006
PRECURSORTYPE: [M+H]+
IONMODE: Positive
SPECTRUMTYPE: MS2
COLLISIONENERGY: 10 eV
FORMULA: C15H12O2
SMILES: O=C1CC(c2ccccc2)Oc2ccccc21
INCHI: InChI=1S/C15H12O2/c16-13-10-15(11-6-2-1-3-7-11)17-14-9-5-4-8-12(13)14/h1-9,15H,10H2
INCHIKEY: ZONYXWQDUYMKFB-UHFFFAOYSA-N
RETENTIONTIME: 8.504216
COMMENT: dataset=RIKEN_MONA; source_file=external_data/raw_libraries/RIKEN_MONA.xlsx; source_row=146; RT_sec=510.25296
Num Peaks: 52
65.040370 2.500000
88.507440 0.500000
91.051140 0.900000
93.031800 2.100000
93.036990 1.300000
103.052980 11.600000
104.056070 0.800000
105.033540 0.800000
105.074200 0.800000
106.043370 0.600000
107.047470 0.500000
119.044880 0.700000
119.053700 1.000000
121.011090 0.900000
121.028600 65.600000
122.032870 5.200000
122.042710 0.700000
131.043580 7.700000
131.053340 5.900000
131.058530 2.000000
132.049880 1.500000
147.035950 3.400000
147.046750 7.200000
148.050400 0.900000
152.059430 0.500000
153.060610 0.800000
166.076970 0.600000
170.094040 0.600000
175.350590 0.700000
178.044010 0.500000
178.071400 2.400000
178.079880 5.200000
178.087430 1.400000
179.051540 0.600000
179.078050 4.200000
179.085950 11.900000
180.087690 1.100000
181.065430 2.900000
183.068910 0.700000
183.081380 1.300000
195.084340 0.500000
197.095020 0.800000
207.077130 6.200000
207.089260 2.000000
208.079710 1.900000
208.695220 0.600000
210.068440 29.200000
211.064670 1.600000
211.076510 1.600000
223.079420 1.200000
225.056430 0.600000
225.090960 100.000000

NAME: Flavone
SCANNUMBER: RIKEN_MONA_147
PRECURSORMZ: 223.075356
PRECURSORTYPE: [M+H]+
IONMODE: Positive
SPECTRUMTYPE: MS2
COLLISIONENERGY: 10 eV
FORMULA: C15H10O2
SMILES: O=c1cc(-c2ccccc2)oc2ccccc12
INCHI: InChI=1S/C15H10O2/c16-13-10-15(11-6-2-1-3-7-11)17-14-9-5-4-8-12(13)14/h1-10H
INCHIKEY: VHBFFQKBGNRLFZ-UHFFFAOYSA-N
RETENTIONTIME: 7.751167
COMMENT: dataset=RIKEN_MONA; source_file=external_data/raw_libraries/RIKEN_MONA.xlsx; source_row=147; RT_sec=465.07002
Num Peaks: 15
77.038320 1.600000
93.034190 1.600000
103.053630 2.300000
121.028320 5.400000
129.032840 2.600000
152.061660 1.100000
165.068590 1.200000
167.084980 1.400000
177.065490 0.500000
178.078000 3.100000
179.082700 0.500000
223.075850 100.000000
223.118420 3.700000
223.157910 0.600000
223.251540 1.200000

NAME: Formononetin
SCANNUMBER: RIKEN_MONA_148
PRECURSORMZ: 269.080835
PRECURSORTYPE: [M+H]+
IONMODE: Positive
SPECTRUMTYPE: MS2
COLLISIONENERGY: 10 eV
FORMULA: C16H12O4
SMILES: COc1ccc(-c2coc3cc(O)ccc3c2=O)cc1
INCHI: InChI=1S/C16H12O4/c1-19-12-5-2-10(3-6-12)14-9-20-15-8-11(17)4-7-13(15)16(14)18/h2-9,17H,1H3
INCHIKEY: HKQYGTCOTHHOMP-UHFFFAOYSA-N
RETENTIONTIME: 6.685184
COMMENT: dataset=RIKEN_MONA; source_file=external_data/raw_libraries/RIKEN_MONA.xlsx; source_row=148; RT_sec=401.11104
Num Peaks: 31
107.045110 0.600000
107.050480 0.800000
118.042240 2.500000
136.015370 1.400000
137.020050 1.100000
141.071110 0.700000
152.062360 1.100000
153.069530 0.900000
156.056870 1.600000
163.037570 0.500000
169.064130 1.900000
170.072020 1.400000
180.060490 0.700000
181.065160 3.200000
197.058990 7.600000
198.057560 0.800000
198.068770 1.600000
213.089200 4.900000
213.099790 1.300000
214.097930 0.600000
225.054460 3.900000
226.061770 5.500000
227.061540 0.900000
237.055150 6.100000
238.061110 1.200000
253.048860 7.500000
254.057820 6.800000
255.063840 0.900000
269.045070 0.600000
269.081510 100.000000
269.128970 2.800000

NAME: Formononetin-7-O-glucoside
SCANNUMBER: RIKEN_MONA_149
PRECURSORMZ: 431.133659
PRECURSORTYPE: [M+H]+
IONMODE: Positive
SPECTRUMTYPE: MS2
COLLISIONENERGY: 10 eV
FORMULA: C22H22O9
SMILES: COc1ccc(-c2coc3cc(O[C@@H]4O[C@H](CO)[C@@H](O)[C@H](O)[C@H]4O)ccc3c2=O)cc1
INCHI: InChI=1S/C22H22O9/c1-28-12-4-2-11(3-5-12)15-10-29-16-8-13(6-7-14(16)18(15)24)30-22-21(27)20(26)19(25)17(9-23)31-22/h2-8,10,17,19-23,25-27H,9H2,1H3/t17-,19-,20+,21-,22-/m1/s1
INCHIKEY: MGJLSBDCWOSMHL-MIUGBVLSSA-N
RETENTIONTIME: 5.035634
COMMENT: dataset=RIKEN_MONA; source_file=external_data/raw_libraries/RIKEN_MONA.xlsx; source_row=149; RT_sec=302.13804
Num Peaks: 15
118.043620 0.700000
213.091200 3.400000
226.066940 1.300000
237.054020 3.600000
253.052610 0.900000
254.040680 1.000000
254.055040 2.200000
269.029820 0.700000
269.047760 0.700000
269.081150 100.000000
270.061580 0.900000
270.084810 18.300000
271.075620 0.700000
271.084810 3.200000
431.135380 16.900000

NAME: Formosanine
SCANNUMBER: RIKEN_MONA_150
PRECURSORMZ: 369.180884
PRECURSORTYPE: [M+H]+
IONMODE: Positive
SPECTRUMTYPE: MS2
COLLISIONENERGY: 10 eV
FORMULA: C21H24N2O4
SMILES: COC(=O)C1=CO[C@H](C)[C@H]2CN3CC[C@]4(C(O)=Nc5ccccc54)[C@@H]3C[C@H]12
INCHI: InChI=1S/C21H24N2O4/c1-12-14-10-23-8-7-21(16-5-3-4-6-17(16)22-20(21)25)18(23)9-13(14)15(11-27-12)19(24)26-2/h3-6,11-14,18H,7-10H2,1-2H3,(H,22,25)/t12-,13+,14-,18+,21-/m1/s1
INCHIKEY: JMIAZDVHNCCPDM-XJKYNJMSSA-N
RETENTIONTIME: 4.330417
COMMENT: dataset=RIKEN_MONA; source_file=external_data/raw_libraries/RIKEN_MONA.xlsx; source_row=150; RT_sec=259.82502
Num Peaks: 28
108.079080 0.900000
117.058110 0.600000
118.062420 0.700000
124.038770 1.800000
132.043490 0.800000
132.080120 4.300000
142.064870 4.400000
150.090530 0.600000
158.059190 1.600000
160.074740 34.400000
160.111600 0.500000
161.078840 4.000000
178.084790 5.800000
179.090330 1.400000
187.083740 0.600000
201.101720 8.400000
202.104060 1.300000
210.111400 2.100000
267.150090 1.000000
309.160370 7.100000
310.158200 0.900000
310.173280 0.600000
337.154210 13.300000
338.157530 4.000000
367.167540 0.600000
369.125150 0.600000
369.179720 100.000000
369.235530 2.700000

NAME: Gallic acid
SCANNUMBER: RIKEN_MONA_151
PRECURSORMZ: 171.028800
PRECURSORTYPE: [M+H]+
IONMODE: Positive
SPECTRUMTYPE: MS2
COLLISIONENERGY: 10 eV
FORMULA: C7H6O5
SMILES: O=C(O)c1cc(O)c(O)c(O)c1
INCHI: InChI=1S/C7H6O5/c8-4-1-3(7(11)12)2-5(9)6(4)10/h1-2,8-10H,(H,11,12)
INCHIKEY: LNTHITQWFMADLM-UHFFFAOYSA-N
RETENTIONTIME: 2.039900
COMMENT: dataset=RIKEN_MONA; source_file=external_data/raw_libraries/RIKEN_MONA.xlsx; source_row=151; RT_sec=122.393999999999
Num Peaks: 15
81.029690 6.200000
89.942920 6.600000
96.955940 8.300000
96.962120 8.300000
107.013800 28.500000
109.027460 49.700000
122.600150 6.900000
125.018210 20.500000
125.026270 34.400000
127.038430 100.000000
128.048570 5.900000
128.953110 5.900000
130.966810 14.200000
153.017640 71.200000
171.031510 56.200000

NAME: Gardneramine
SCANNUMBER: RIKEN_MONA_152
PRECURSORMZ: 413.207098
PRECURSORTYPE: [M+H]+
IONMODE: Positive
SPECTRUMTYPE: MS2
COLLISIONENERGY: 10 eV
FORMULA: C23H28N2O5
SMILES: COC/C=C1\CN2C3C[C@H]1[C@@H]1COC4=Nc5c(OC)cc(OC)c(OC)c5C43C[C@@H]12
INCHI: InChI=1S/C23H28N2O5/c1-26-6-5-12-10-25-15-9-23-18(25)7-13(12)14(15)11-30-22(23)24-20-16(27-2)8-17(28-3)21(29-4)19(20)23/h5,8,13-15,18H,6-7,9-11H2,1-4H3/b12-5+/t13-,14+,15+,18?,23?/m1/s1
INCHIKEY: RIMDDIPKIZTBHU-KPDHXFAYSA-N
RETENTIONTIME: 3.822467
COMMENT: dataset=RIKEN_MONA; source_file=external_data/raw_libraries/RIKEN_MONA.xlsx; source_row=152; RT_sec=229.34802
Num Peaks: 20
218.040970 1.000000
233.069440 3.300000
234.073620 0.600000
248.091030 2.100000
273.085600 0.900000
337.115630 0.500000
351.127380 0.700000
351.142460 0.600000
353.145290 0.900000
365.159850 0.700000
366.157750 1.400000
367.165010 3.100000
368.159120 0.700000
383.158170 2.600000
397.173460 0.900000
398.182190 2.700000
399.187650 0.700000
413.135560 0.700000
413.205900 100.000000
413.265350 1.800000

NAME: Gardnerine
SCANNUMBER: RIKEN_MONA_153
PRECURSORMZ: 325.191055
PRECURSORTYPE: [M+H]+
IONMODE: Positive
SPECTRUMTYPE: MS2
COLLISIONENERGY: 10 eV
FORMULA: C20H24N2O2
SMILES: C/C=C1/CN2C3Cc4c([nH]c5cc(OC)ccc45)[C@@H]2CC1C3CO
INCHI: InChI=1S/C20H24N2O2/c1-3-11-9-22-18-8-15-13-5-4-12(24-2)6-17(13)21-20(15)19(22)7-14(11)16(18)10-23/h3-6,14,16,18-19,21,23H,7-10H2,1-2H3/b11-3-/t14?,16?,18?,19-/m0/s1
INCHIKEY: RBALEJFQJCAPLN-RFEOFLAMSA-N
RETENTIONTIME: 3.679583
COMMENT: dataset=RIKEN_MONA; source_file=external_data/raw_libraries/RIKEN_MONA.xlsx; source_row=153; RT_sec=220.77498
Num Peaks: 90
108.080330 5.900000
109.084010 0.500000
120.081010 0.700000
122.095800 0.900000
134.096480 0.700000
138.090810 8.000000
139.096950 0.700000
146.091320 1.000000
146.097410 2.500000
148.073060 0.600000
148.112010 0.700000
155.072240 0.700000
157.086820 0.800000
158.054790 0.600000
159.076230 0.800000
160.077120 2.000000
161.075060 0.500000
161.084460 2.000000
162.090260 0.700000
164.104890 0.700000
167.069700 0.600000
167.079420 0.500000
169.086150 0.800000
170.063420 0.600000
171.068480 0.800000
172.075740 3.800000
173.080490 2.500000
174.090150 10.900000
175.094500 1.600000
183.067320 0.800000
185.084240 0.600000
186.091690 5.200000
186.104860 0.500000
187.098590 7.400000
188.105680 8.800000
189.110170 1.800000
198.091480 3.500000
199.098210 0.500000
200.104290 3.500000
201.104630 0.500000
201.114440 0.600000
210.089630 1.000000
222.090530 1.400000
223.095700 1.600000
224.103270 1.300000
225.113250 0.700000
226.119110 1.000000
234.090940 0.700000
235.094890 0.600000
236.107160 1.200000
237.105000 0.500000
237.116170 1.100000
238.124220 0.900000
249.102100 1.000000
249.117310 0.600000
250.113800 0.600000
251.122960 0.900000
252.135700 6.000000
253.145630 0.900000
254.121550 0.700000
260.104160 0.500000
261.097600 0.800000
262.125240 0.800000
263.127230 0.500000
264.135160 1.000000
265.129880 0.700000
265.142580 0.900000
275.125030 0.900000
276.133450 1.000000
277.118530 0.600000
277.131770 0.700000
278.133000 0.700000
278.150300 1.700000
279.150850 1.200000
282.152400 1.000000
290.151550 0.900000
291.143890 0.900000
292.145870 0.700000
292.157680 0.600000
293.168370 0.500000
294.169680 1.200000
295.179320 1.900000
296.179470 0.600000
307.171540 3.700000
307.183960 5.700000
307.203460 0.600000
308.159300 0.700000
308.179960 2.000000
325.190730 100.000000
325.242340 2.700000

NAME: Gardnutine
SCANNUMBER: RIKEN_MONA_154
PRECURSORMZ: 323.175404
PRECURSORTYPE: [M+H]+
IONMODE: Positive
SPECTRUMTYPE: MS2
COLLISIONENERGY: 10 eV
FORMULA: C20H22N2O2
SMILES: C/C=C1/CN2[C@H]3CC1[C@H]1CO[C@H](c4c3[nH]c3cc(OC)ccc43)[C@@H]12
INCHI: InChI=1S/C20H22N2O2/c1-3-10-8-22-16-7-13(10)14-9-24-20(19(14)22)17-12-5-4-11(23-2)6-15(12)21-18(16)17/h3-6,13-14,16,19-21H,7-9H2,1-2H3/b10-3-/t13?,14-,16+,19-,20-/m1/s1
INCHIKEY: XJTWLFBHBFSVRS-WGWIJKTCSA-N
RETENTIONTIME: 4.419867
COMMENT: dataset=RIKEN_MONA; source_file=external_data/raw_libraries/RIKEN_MONA.xlsx; source_row=154; RT_sec=265.19202
Num Peaks: 58
91.052470 0.600000
93.058410 0.600000
93.064870 0.700000
93.071720 1.000000
94.065250 2.000000
108.081860 0.700000
120.080440 6.500000
121.083120 0.600000
121.091310 0.500000
122.096440 13.400000
123.098180 0.900000
134.095950 0.800000
148.076170 0.700000
148.112210 1.500000
150.084640 0.600000
150.091750 0.800000
158.060710 2.900000
159.066020 1.000000
160.074580 1.400000
173.083620 5.400000
174.091450 2.900000
186.089020 1.800000
188.070470 0.600000
188.109420 1.100000
193.088620 1.100000
202.083590 2.000000
210.090120 1.400000
212.103610 0.600000
212.112300 0.600000
215.085070 0.600000
216.101090 0.600000
223.098400 0.600000
224.107250 2.100000
227.082790 0.500000
234.092970 0.700000
236.103320 0.800000
238.121320 0.600000
247.124100 0.500000
248.108250 0.600000
249.099500 0.900000
249.110180 0.600000
250.124890 0.900000
252.098690 1.800000
261.142180 1.000000
263.118650 0.600000
264.127750 0.800000
268.132390 0.500000
277.130490 1.500000
278.136960 1.300000
278.149480 2.100000
279.149870 0.700000
293.165070 25.600000
294.168370 5.500000
295.174960 1.500000
305.166720 0.900000
323.112730 0.600000
323.175230 100.000000
323.226260 2.600000

NAME: Gelsemine
SCANNUMBER: RIKEN_MONA_155
PRECURSORMZ: 323.175404
PRECURSORTYPE: [M+H]+
IONMODE: Positive
SPECTRUMTYPE: MS2
COLLISIONENERGY: 10 eV
FORMULA: C20H22N2O2
SMILES: C=C[C@]12CN(C)[C@@H]3[C@H]4CO[C@H](CC41)[C@]1(C(O)=Nc4ccccc41)[C@@H]32
INCHI: InChI=1S/C20H22N2O2/c1-3-19-10-22(2)16-11-9-24-15(8-13(11)19)20(17(16)19)12-6-4-5-7-14(12)21-18(20)23/h3-7,11,13,15-17H,1,8-10H2,2H3,(H,21,23)/t11-,13?,15+,16+,17-,19-,20-/m0/s1
INCHIKEY: NFYYATWFXNPTRM-ICFOCEFXSA-N
RETENTIONTIME: 3.210750
COMMENT: dataset=RIKEN_MONA; source_file=external_data/raw_libraries/RIKEN_MONA.xlsx; source_row=155; RT_sec=192.645
Num Peaks: 18
70.064720 2.700000
131.084010 1.500000
132.039140 0.500000
146.055920 0.500000
146.064700 0.600000
159.077000 0.900000
195.066670 2.400000
196.075230 1.100000
208.077930 0.700000
210.092130 1.200000
218.096050 1.700000
236.107360 5.200000
237.107760 0.600000
238.118990 1.700000
239.125200 0.700000
323.119810 0.800000
323.175140 100.000000
323.228030 2.500000

NAME: Gelsenicine
SCANNUMBER: RIKEN_MONA_156
PRECURSORMZ: 327.170319
PRECURSORTYPE: [M+H]+
IONMODE: Positive
SPECTRUMTYPE: MS2
COLLISIONENERGY: 10 eV
FORMULA: C19H22N2O3
SMILES: CCC1=N[C@H]2C[C@@]3(C(=O)N(OC)c4ccccc43)[C@H]3C[C@@H]1[C@@H]2CO3
INCHI: InChI=1S/C19H22N2O3/c1-3-14-11-8-17-19(9-15(20-14)12(11)10-24-17)13-6-4-5-7-16(13)21(23-2)18(19)22/h4-7,11-12,15,17H,3,8-10H2,1-2H3/t11-,12+,15+,17-,19+/m1/s1
INCHIKEY: BIGABVPVCRHEES-NWPJSNQLSA-N
RETENTIONTIME: 3.986933
COMMENT: dataset=RIKEN_MONA; source_file=external_data/raw_libraries/RIKEN_MONA.xlsx; source_row=156; RT_sec=239.21598
Num Peaks: 58
71.073590 1.400000
85.089960 0.800000
95.071690 0.800000
96.079920 0.700000
108.080020 4.400000
109.083150 0.900000
109.091970 0.800000
111.069290 0.600000
122.055730 0.800000
122.095120 0.700000
136.111310 0.500000
143.073270 1.500000
178.066150 1.100000
180.080840 0.700000
183.070020 1.100000
196.075840 2.200000
196.109240 0.900000
197.072560 0.500000
206.096570 1.800000
208.077210 0.800000
210.085600 0.700000
222.094070 0.700000
223.092000 0.600000
223.099990 0.800000
224.106830 3.500000
225.105220 6.300000
226.107360 0.800000
230.092770 1.100000
230.101820 1.000000
231.091370 0.700000
232.095900 0.600000
233.085450 1.100000
235.090230 0.700000
236.101430 0.500000
237.098210 0.500000
239.118800 2.200000
240.119780 0.700000
248.107130 3.000000
249.099230 0.600000
249.110900 0.800000
250.101940 0.500000
251.119340 0.600000
265.102200 0.500000
265.134250 17.600000
266.138400 3.000000
267.112300 1.700000
267.148100 1.000000
268.158200 3.500000
269.156340 0.700000
279.139310 0.600000
279.151430 2.500000
296.152560 72.400000
296.201900 1.500000
297.155700 16.400000
298.159360 2.000000
327.120060 0.700000
327.171840 100.000000
327.224330 2.800000

NAME: Gelsevirine
SCANNUMBER: RIKEN_MONA_157
PRECURSORMZ: 353.185969
PRECURSORTYPE: [M+H]+
IONMODE: Positive
SPECTRUMTYPE: MS2
COLLISIONENERGY: 10 eV
FORMULA: C21H24N2O3
SMILES: C=C[C@]12CN(C)[C@@H]3[C@H]4CO[C@H](CC41)[C@]1(C(=O)N(OC)c4ccccc41)[C@@H]32
INCHI: InChI=1S/C21H24N2O3/c1-4-20-11-22(2)17-12-10-26-16(9-14(12)20)21(18(17)20)13-7-5-6-8-15(13)23(25-3)19(21)24/h4-8,12,14,16-18H,1,9-11H2,2-3H3/t12-,14?,16+,17+,18-,20-,21-/m0/s1
INCHIKEY: SSSCMFCWHWCCEH-TXBDATSXSA-N
RETENTIONTIME: 4.053500
COMMENT: dataset=RIKEN_MONA; source_file=external_data/raw_libraries/RIKEN_MONA.xlsx; source_row=157; RT_sec=243.209999999999
Num Peaks: 53
108.080380 1.600000
110.095890 2.600000
120.079730 0.900000
134.098710 0.700000
151.101170 1.100000
184.075070 0.800000
194.096360 0.800000
195.065810 0.800000
196.077680 0.500000
208.075330 0.700000
211.082780 1.700000
218.096340 0.700000
235.100830 0.700000
236.110210 0.500000
237.101260 1.000000
241.095870 0.600000
242.099290 0.800000
244.108570 0.600000
246.086010 0.500000
246.096010 0.600000
247.093890 0.500000
248.112230 1.100000
249.107770 0.500000
251.129440 0.500000
258.093900 1.000000
260.094850 0.600000
260.109250 3.900000
261.113220 0.900000
261.137790 0.700000
262.112700 0.600000
262.121860 0.800000
262.151980 0.600000
263.122160 0.700000
263.130920 0.500000
272.100370 1.100000
273.113190 1.700000
274.124180 0.800000
279.125980 0.700000
280.169590 0.900000
289.137570 1.300000
291.152830 3.300000
292.161380 0.600000
294.180450 0.700000
303.150820 1.000000
304.158480 2.400000
322.125150 0.700000
322.168090 39.200000
323.172030 12.000000
324.175050 1.900000
353.120390 0.600000
353.136140 0.800000
353.185880 100.000000
353.241060 2.100000

NAME: Geniposide
SCANNUMBER: RIKEN_MONA_158
PRECURSORMZ: 389.144223
PRECURSORTYPE: [M+H]+
IONMODE: Positive
SPECTRUMTYPE: MS2
COLLISIONENERGY: 10 eV
FORMULA: C17H24O10
SMILES: COC(=O)C1=CO[C@@H](O[C@@H]2OC(CO)[C@@H](O)[C@@H](O)C2O)[C@@H]2C(CO)=CC[C@H]12
INCHI: InChI=1S/C17H24O10/c1-24-15(23)9-6-25-16(11-7(4-18)2-3-8(9)11)27-17-14(22)13(21)12(20)10(5-19)26-17/h2,6,8,10-14,16-22H,3-5H2,1H3/t8-,10?,11-,12-,13-,14?,16+,17+/m1/s1
INCHIKEY: IBFYXTRXDNAPMM-VWSFEJNESA-N
RETENTIONTIME: 3.420583
COMMENT: dataset=RIKEN_MONA; source_file=external_data/raw_libraries/RIKEN_MONA.xlsx; source_row=158; RT_sec=205.23498
Num Peaks: 14
149.056060 33.800000
149.067370 30.100000
149.919740 8.600000
177.047850 23.000000
177.061840 14.100000
181.088640 16.000000
191.058380 6.700000
191.069200 14.500000
195.072860 9.300000
209.083740 100.000000
210.087520 6.700000
227.078000 8.600000
227.093600 11.500000
353.134700 10.800000

NAME: Genistein
SCANNUMBER: RIKEN_MONA_159
PRECURSORMZ: 271.060100
PRECURSORTYPE: [M+H]+
IONMODE: Positive
SPECTRUMTYPE: MS2
COLLISIONENERGY: 10 eV
FORMULA: C15H10O5
SMILES: O=c1c(-c2ccc(O)cc2)coc2cc(O)cc(O)c12
INCHI: InChI=1S/C15H10O5/c16-9-3-1-8(2-4-9)11-7-20-13-6-10(17)5-12(18)14(13)15(11)19/h1-7,16-18H
INCHIKEY: TZBJGXHYKVUXJN-UHFFFAOYSA-N
RETENTIONTIME: 5.923517
COMMENT: dataset=RIKEN_MONA; source_file=external_data/raw_libraries/RIKEN_MONA.xlsx; source_row=159; RT_sec=355.41102
Num Peaks: 30
91.051910 1.300000
91.056850 1.000000
115.054570 1.100000
119.047840 1.000000
131.050200 0.600000
141.071240 1.700000
145.025420 1.100000
145.034850 0.600000
147.044600 0.800000
149.019270 1.100000
149.025960 1.800000
153.017140 7.100000
159.041310 0.800000
159.047350 0.600000
165.021220 1.100000
169.066210 2.200000
187.042270 0.700000
191.032270 0.500000
197.055910 2.100000
198.069790 0.700000
214.059740 0.500000
215.064940 3.300000
215.076480 2.900000
216.075970 0.800000
243.067110 2.800000
253.043700 1.100000
253.055220 1.300000
271.033170 1.500000
271.059420 100.000000
271.106660 0.700000

NAME: Gentiopicroside
SCANNUMBER: RIKEN_MONA_160
PRECURSORMZ: 357.118009
PRECURSORTYPE: [M+H]+
IONMODE: Positive
SPECTRUMTYPE: MS2
COLLISIONENERGY: 10 eV
FORMULA: C16H20O9
SMILES: C=C[C@@H]1C2=CCOC(=O)C2=CO[C@H]1O[C@@H]1O[C@H](CO)[C@@H](O)[C@H](O)[C@H]1O
INCHI: InChI=1S/C16H20O9/c1-2-7-8-3-4-22-14(21)9(8)6-23-15(7)25-16-13(20)12(19)11(18)10(5-17)24-16/h2-3,6-7,10-13,15-20H,1,4-5H2/t7-,10-,11-,12+,13-,15+,16+/m1/s1
INCHIKEY: DUAGQYUORDTXOR-GPQRQXLASA-N
RETENTIONTIME: 3.442450
COMMENT: dataset=RIKEN_MONA; source_file=external_data/raw_libraries/RIKEN_MONA.xlsx; source_row=160; RT_sec=206.547
Num Peaks: 43
77.038480 1.600000
81.071930 1.700000
85.025020 2.000000
91.055480 3.200000
93.046550 3.300000
93.069600 10.900000
103.038490 2.200000
103.051310 7.600000
105.064300 3.000000
105.069890 5.400000
107.051410 3.300000
109.027340 2.200000
121.047680 2.300000
121.061670 10.700000
121.066500 24.100000
122.070550 1.900000
127.036130 6.000000
127.045890 2.600000
131.023650 1.700000
131.044740 4.600000
131.051060 2.600000
147.048220 1.800000
147.988920 1.800000
149.040210 1.800000
149.056790 45.900000
149.064240 30.700000
150.060930 3.000000
150.068570 3.400000
151.060350 1.600000
151.079160 1.800000
159.040190 1.800000
160.044530 3.000000
175.039810 1.600000
177.040160 2.700000
177.056550 54.200000
178.049770 4.000000
178.058560 7.700000
192.800340 1.600000
195.064560 100.000000
196.065640 11.100000
197.062820 1.700000
197.071670 1.800000
321.089900 1.600000

NAME: Germbudine
SCANNUMBER: RIKEN_MONA_161
PRECURSORMZ: 710.411003
PRECURSORTYPE: [M+H]+
IONMODE: Positive
SPECTRUMTYPE: MS2
COLLISIONENERGY: 10 eV
FORMULA: C37H59NO12
SMILES: CCC(C)C(=O)OC1C(O)C2C(CN3CC(C)CCC3C2(C)O)C2CC34OC5(O)C(OC(=O)C(C)(O)C(C)O)CCC3(C)C5CC(O)C4C21O
INCHI: InChI=1S/C37H59NO12/c1-8-18(3)30(42)49-29-27(41)26-20(16-38-15-17(2)9-10-24(38)34(26,7)45)21-14-35-28(36(21,29)46)22(40)13-23-32(35,5)12-11-25(37(23,47)50-35)48-31(43)33(6,44)19(4)39/h17-29,39-41,44-47H,8-16H2,1-7H3
INCHIKEY: LWSPRPDSPCBAKK-UHFFFAOYSA-N
RETENTIONTIME: 4.647550
COMMENT: dataset=RIKEN_MONA; source_file=external_data/raw_libraries/RIKEN_MONA.xlsx; source_row=161; RT_sec=278.853
Num Peaks: 16
456.276890 1.300000
474.282960 1.000000
558.339780 3.700000
559.346920 1.000000
572.329650 0.800000
590.335080 0.900000
674.383910 0.600000
674.409910 0.500000
675.399290 0.500000
692.401250 16.900000
693.406010 6.900000
694.411500 2.100000
710.295100 0.500000
710.333190 0.700000
710.412540 100.000000
710.491940 1.300000

NAME: Germinaline
SCANNUMBER: RIKEN_MONA_162
PRECURSORMZ: 752.421568
PRECURSORTYPE: [M+H]+
IONMODE: Positive
SPECTRUMTYPE: MS2
COLLISIONENERGY: 10 eV
FORMULA: C39H61NO13
SMILES: CCC(C)C(=O)OC1C(O)C2C(CN3CC(C)CCC3C2(C)O)C2CC34OC5(O)C(OC(=O)C(C)(O)C(C)OC(C)=O)CCC3(C)C5CC(O)C4C21O
INCHI: InChI=1S/C39H61NO13/c1-9-19(3)32(44)52-31-29(43)28-22(17-40-16-18(2)10-11-26(40)36(28,8)47)23-15-37-30(38(23,31)48)24(42)14-25-34(37,6)13-12-27(39(25,49)53-37)51-33(45)35(7,46)20(4)50-21(5)41/h18-20,22-31,42-43,46-49H,9-17H2,1-8H3
INCHIKEY: CPINTEKYWNYXNP-UHFFFAOYSA-N
RETENTIONTIME: 5.038466
COMMENT: dataset=RIKEN_MONA; source_file=external_data/raw_libraries/RIKEN_MONA.xlsx; source_row=162; RT_sec=302.30796
Num Peaks: 46
154.121610 1.000000
377.372890 0.500000
378.502530 0.600000
409.013610 0.600000
420.248170 0.700000
438.253080 0.600000
444.931210 0.600000
456.239260 0.700000
456.273160 2.000000
554.339660 0.500000
558.330200 0.600000
558.346010 0.900000
558.391110 0.500000
596.348510 0.900000
614.318660 7.500000
614.359500 2.300000
615.305110 0.800000
615.342530 1.300000
615.365600 0.800000
616.335270 0.800000
632.291990 0.600000
632.307370 1.600000
632.346800 6.100000
632.378540 2.500000
633.290280 0.600000
633.337220 1.600000
633.365780 2.400000
634.351380 1.200000
650.316530 1.100000
650.338750 2.400000
650.360660 3.000000
650.375430 1.500000
651.260380 0.700000
651.351320 2.700000
652.354190 0.600000
716.390870 3.600000
717.422970 0.700000
734.352420 0.600000
734.383060 4.800000
734.411010 10.800000
734.439640 3.600000
735.389040 3.700000
735.422180 2.000000
736.433110 0.700000
752.329710 1.000000
752.420720 100.000000

NAME: Ginkgolide B
SCANNUMBER: RIKEN_MONA_163
PRECURSORMZ: 425.144223
PRECURSORTYPE: [M+H]+
IONMODE: Positive
SPECTRUMTYPE: MS2
COLLISIONENERGY: 10 eV
FORMULA: C20H24O10
SMILES: C[C@@H]1C(=O)O[C@H]2[C@H](O)[C@@]34[C@H]5C[C@@H](C(C)(C)C)[C@]36[C@@H](OC(=O)[C@@H]6O)O[C@@]4(C(=O)O5)[C@@]12O
INCHI: InChI=1S/C20H24O10/c1-6-12(23)28-11-9(21)18-8-5-7(16(2,3)4)17(18)10(22)13(24)29-15(17)30-20(18,14(25)27-8)19(6,11)26/h6-11,15,21-22,26H,5H2,1-4H3/t6-,7+,8-,9+,10+,11+,15+,17+,18+,19-,20-/m1/s1
INCHIKEY: SQOJOAFXDQDRGF-MMQTXUMRSA-N
RETENTIONTIME: 5.359533
COMMENT: dataset=RIKEN_MONA; source_file=external_data/raw_libraries/RIKEN_MONA.xlsx; source_row=163; RT_sec=321.57198
Num Peaks: 230
55.056590 0.500000
69.065590 0.600000
74.666290 0.500000
105.074870 0.600000
109.033460 1.000000
113.091830 0.500000
121.069050 0.800000
121.815430 0.900000
127.076940 0.600000
131.049670 0.600000
137.021670 0.600000
145.105970 0.600000
147.078670 1.100000
149.063110 0.500000
153.638320 1.000000
156.063200 0.500000
157.099010 2.400000
159.082150 1.200000
159.120700 0.500000
160.123150 0.500000
163.056290 0.600000
163.118100 0.900000
165.098750 0.600000
169.105560 1.700000
173.052470 0.600000
174.035340 0.800000
177.046100 1.600000
177.085570 0.600000
178.076600 0.800000
182.103960 1.100000
183.091020 0.700000
185.067730 0.700000
185.093000 2.400000
185.150020 0.500000
187.034730 0.800000
187.125230 0.700000
189.085620 0.600000
189.096420 0.600000
189.128430 1.100000
190.089220 0.500000
191.040410 0.800000
191.114810 0.600000
192.037870 0.600000
192.082660 0.700000
193.055310 0.600000
196.124110 1.100000
197.100340 1.100000
197.132370 0.600000
198.102100 0.500000
199.036090 0.500000
199.079940 1.300000
199.113490 0.500000
200.068730 0.800000
200.123720 0.600000
201.014400 0.700000
201.037550 0.600000
201.092730 2.200000
203.074980 0.600000
204.121230 0.600000
205.098280 0.600000
205.107680 0.500000
205.118740 0.500000
207.022930 0.500000
207.036150 0.600000
207.116240 0.500000
207.164250 0.800000
209.141390 0.700000
211.073680 0.700000
212.068980 1.200000
213.047870 0.600000
213.084380 1.400000
213.096740 1.300000
214.231190 0.600000
214.824540 0.600000
215.065890 0.600000
215.076490 0.700000
215.108170 1.000000
216.086180 0.700000
216.117600 0.600000
217.081940 1.100000
219.026410 1.300000
219.064560 0.500000
222.158920 0.600000
224.115690 0.600000
225.118670 1.000000
225.136930 0.900000
227.044650 0.700000
227.102660 1.500000
227.120030 0.600000
229.048660 1.000000
229.081890 1.300000
229.088850 2.900000
230.093810 1.000000
231.095760 1.300000
237.099240 0.600000
237.136340 0.600000
239.070770 1.000000
239.113310 1.800000
241.079180 1.100000
241.089540 0.700000
241.121290 1.200000
242.093290 0.500000
243.062130 0.500000
244.098050 0.600000
244.110350 0.600000
245.016800 0.800000
245.035640 0.700000
245.082090 1.600000
245.099690 0.600000
246.109470 0.600000
246.165940 0.600000
247.056920 0.600000
247.076050 0.600000
247.099620 0.600000
247.120270 0.600000
253.089630 1.300000
253.112880 1.200000
253.124180 1.900000
254.127430 0.600000
255.023560 0.600000
255.101760 0.600000
255.134280 0.600000
256.075070 1.000000
256.152280 0.800000
257.076200 1.300000
257.089810 1.100000
257.102690 0.600000
259.065220 0.600000
259.086210 2.300000
259.099910 0.700000
259.111690 0.500000
260.091430 1.300000
260.146940 0.600000
261.078310 0.700000
261.113160 0.600000
262.375730 0.600000
263.103420 1.000000
269.111240 1.100000
269.121120 0.500000
269.268950 0.600000
271.084960 0.600000
271.115570 1.000000
271.129150 0.500000
272.069790 0.600000
273.066070 1.200000
273.118190 0.900000
275.088040 2.900000
276.101100 0.500000
279.098300 2.200000
281.080930 0.500000
282.127750 1.100000
283.093050 0.700000
283.119780 1.300000
283.132110 0.500000
285.112950 1.100000
287.094420 0.600000
287.122770 0.700000
287.131990 1.300000
289.096560 1.200000
295.115540 0.700000
297.068150 0.900000
297.123720 1.300000
298.098790 0.900000
299.087430 1.100000
299.107880 0.600000
299.131200 2.300000
300.131930 0.600000
301.031400 0.900000
301.073330 0.900000
301.111570 0.500000
303.089290 2.200000
303.165190 0.700000
303.479860 0.500000
304.112120 0.700000
305.101930 4.600000
305.116030 2.300000
306.116270 1.800000
307.098450 0.800000
309.132140 1.200000
312.392400 0.500000
315.121520 2.400000
315.137210 0.700000
316.149690 0.600000
317.120090 0.600000
317.156370 0.600000
319.120270 0.600000
321.090300 1.200000
321.107420 1.100000
325.099270 0.500000
325.122380 1.200000
327.120610 1.000000
328.128020 0.700000
329.073940 0.600000
333.065310 0.600000
333.109680 0.600000
333.139980 1.100000
335.106110 0.500000
335.121220 0.500000
335.154020 0.700000
337.054470 0.900000
337.071080 0.700000
343.094880 0.500000
343.116240 3.000000
344.103000 1.600000
345.120480 1.000000
345.137700 2.200000
345.148990 0.600000
349.117740 0.600000
351.143340 0.900000
353.106510 1.600000
361.054870 0.500000
361.071440 0.500000
361.109530 1.500000
361.132510 16.800000
362.127440 1.000000
362.146670 0.800000
363.124020 0.500000
363.134700 0.900000
371.116490 1.600000
371.209010 0.800000
379.152620 1.000000
389.117650 1.700000
389.133580 3.200000
390.097440 1.200000
407.118410 1.000000
407.135160 0.900000
407.150600 1.000000
409.133970 1.700000
425.112030 1.700000
425.144260 100.000000

NAME: Ginkgolide C
SCANNUMBER: RIKEN_MONA_164
PRECURSORMZ: 441.139138
PRECURSORTYPE: [M+H]+
IONMODE: Positive
SPECTRUMTYPE: MS2
COLLISIONENERGY: 10 eV
FORMULA: C20H24O11
SMILES: CC1C(=O)OC2C(O)C34C5OC(=O)C3(OC3OC(=O)C(O)C34C(C(C)(C)C)C5O)C12O
INCHI: InChI=1S/C20H24O11/c1-5-12(24)28-11-8(22)18-10-6(21)7(16(2,3)4)17(18)9(23)13(25)30-15(17)31-20(18,14(26)29-10)19(5,11)27/h5-11,15,21-23,27H,1-4H3
INCHIKEY: AMOGMTLMADGEOQ-UHFFFAOYSA-N
RETENTIONTIME: 4.330450
COMMENT: dataset=RIKEN_MONA; source_file=external_data/raw_libraries/RIKEN_MONA.xlsx; source_row=164; RT_sec=259.827
Num Peaks: 186
69.037120 0.500000
79.054270 0.800000
83.012220 1.100000
83.085390 0.500000
95.010320 0.900000
104.183750 0.500000
105.070210 0.600000
109.098840 0.500000
121.075650 0.600000
124.111960 0.600000
128.003520 0.600000
129.070890 0.700000
131.045270 0.600000
135.038530 0.600000
135.079070 0.900000
141.059920 0.700000
144.057710 0.700000
147.046130 0.600000
149.065570 0.900000
156.099620 0.600000
157.038040 0.800000
157.103440 1.000000
159.040890 0.700000
159.084690 0.500000
160.082230 0.600000
167.244660 0.600000
170.109240 0.600000
171.026200 0.600000
171.041380 0.600000
173.059330 1.400000
175.042330 0.900000
175.065460 1.000000
175.072980 1.000000
176.079970 0.500000
177.035780 0.600000
177.053590 8.000000
178.030320 0.900000
178.076710 0.900000
182.081010 0.800000
183.045440 0.600000
187.036820 0.700000
188.033170 0.700000
189.053150 1.200000
189.064090 1.000000
190.096770 0.600000
191.070070 0.600000
193.063430 0.700000
193.084630 0.700000
195.017090 0.600000
195.028410 4.800000
195.063630 0.600000
196.029460 0.600000
196.079280 0.500000
197.034640 0.700000
197.141050 0.500000
199.031800 0.600000
199.049820 0.500000
199.073900 1.600000
201.054340 2.200000
201.096220 0.700000
202.059360 0.500000
202.101880 0.700000
203.070020 0.900000
203.143740 0.600000
203.238370 0.800000
205.050810 4.800000
205.111890 0.500000
209.045390 0.600000
209.055680 0.800000
211.051800 0.600000
211.102070 0.600000
213.060100 0.600000
213.095660 1.000000
215.035200 0.500000
219.031770 0.600000
219.068410 1.000000
220.079500 0.500000
223.107160 0.700000
223.116670 0.700000
225.066300 0.600000
226.041890 0.600000
227.059280 0.500000
227.829760 0.600000
228.069050 0.800000
229.053390 2.200000
230.049070 1.000000
231.066130 1.000000
231.122210 0.600000
231.134670 1.100000
233.045010 3.500000
235.021610 0.500000
235.056960 0.700000
235.077180 0.600000
238.051710 0.600000
241.133610 0.800000
242.082120 0.500000
243.030940 0.600000
246.958100 0.600000
247.046300 0.600000
247.058640 1.700000
247.064270 0.700000
249.037230 0.600000
249.145360 0.700000
250.080110 0.700000
251.053340 9.000000
251.064700 2.000000
252.063190 0.600000
252.103530 0.600000
254.031750 0.700000
257.036870 0.500000
257.105930 0.600000
259.062680 0.600000
261.055450 0.800000
262.608180 0.600000
265.064270 0.600000
268.892360 0.600000
271.216430 0.900000
273.110410 0.600000
275.047150 1.900000
276.121430 0.600000
277.074650 0.600000
279.041410 2.000000
279.050200 0.600000
280.042240 0.500000
280.437710 1.200000
282.065120 0.600000
287.075500 0.600000
287.120030 0.500000
288.123260 0.600000
291.761870 0.500000
293.066440 0.700000
294.143250 0.700000
297.052000 0.700000
297.133510 0.700000
298.061830 0.600000
298.108640 0.500000
303.134920 0.700000
307.041470 5.600000
308.057190 0.600000
309.051360 0.700000
311.069790 0.800000
321.058470 0.700000
321.105930 1.000000
321.129850 2.000000
323.109340 0.800000
323.127960 0.700000
324.725190 0.600000
325.036190 0.600000
325.053620 11.400000
326.062620 0.700000
327.086790 0.500000
331.119290 1.200000
332.028470 0.700000
335.069580 0.500000
339.070920 1.000000
341.104520 0.500000
342.099730 1.000000
349.114530 0.600000
349.137880 0.600000
350.127380 0.500000
353.037840 0.800000
353.053190 4.000000
353.498380 0.600000
359.105040 2.700000
366.131010 0.700000
367.060640 0.600000
367.074430 1.200000
367.122800 0.800000
367.139500 0.600000
377.111760 1.100000
377.133910 0.600000
378.115300 1.000000
378.137940 1.000000
379.105870 0.600000
395.105680 0.500000
395.126860 1.500000
395.141570 1.900000
396.153780 1.100000
405.109710 0.600000
405.127930 0.700000
423.112490 0.700000
423.130860 1.600000
441.063690 0.600000
441.087460 1.000000
441.139160 100.000000
441.171110 1.200000

NAME: Ginsenoside F1
SCANNUMBER: RIKEN_MONA_165
PRECURSORMZ: 639.446660
PRECURSORTYPE: [M+H]+
IONMODE: Positive
SPECTRUMTYPE: MS2
COLLISIONENERGY: 10 eV
FORMULA: C36H62O9
SMILES: CC(C)=CCC[C@](C)(O[C@@H]1O[C@H](CO)[C@@H](O)[C@H](O)[C@H]1O)[C@H]1CC[C@]2(C)[C@@H]1[C@H](O)C[C@@H]1[C@@]3(C)CC[C@H](O)C(C)(C)[C@@H]3[C@@H](O)C[C@]12C
INCHI: InChI=1S/C36H62O9/c1-19(2)10-9-13-36(8,45-31-29(43)28(42)27(41)23(18-37)44-31)20-11-15-34(6)26(20)21(38)16-24-33(5)14-12-25(40)32(3,4)30(33)22(39)17-35(24,34)7/h10,20-31,37-43H,9,11-18H2,1-8H3/t20-,21+,22-,23+,24+,25-,26-,27+,28-,29+,30-,31-,33+,34+,35+,36-/m0/s1
INCHIKEY: XNGXWSFSJIQMNC-FIYORUNESA-N
RETENTIONTIME: 6.588550
COMMENT: dataset=RIKEN_MONA; source_file=external_data/raw_libraries/RIKEN_MONA.xlsx; source_row=165; RT_sec=395.313
Num Peaks: 29
95.087460 23.300000
147.117390 25.600000
148.122040 22.100000
149.127490 18.600000
151.118230 19.800000
203.186630 26.700000
205.157150 24.400000
217.209140 19.800000
236.206150 19.800000
241.192370 18.600000
248.207260 27.900000
255.202000 18.600000
269.207370 19.800000
323.274780 18.600000
379.304050 18.600000
423.369350 50.000000
424.345340 62.800000
424.376250 18.600000
425.367800 19.800000
441.354860 18.600000
441.374690 66.300000
442.378450 19.800000
443.389370 20.900000
459.378970 100.000000
459.402830 54.700000
461.386630 18.600000
603.418820 45.300000
639.397830 19.800000
639.449580 18.600000

NAME: Ginsenoside F2
SCANNUMBER: RIKEN_MONA_166
PRECURSORMZ: 783.490016
PRECURSORTYPE: [M-H]-
IONMODE: Negative
SPECTRUMTYPE: MS2
COLLISIONENERGY: 10 eV
FORMULA: C42H72O13
SMILES: CC(C)=CCCC(C)(OC1OC(CO)C(O)C(O)C1O)C1CCC2(C)C1C(O)CC1C3(C)CCC(OC4OC(CO)C(O)C(O)C4O)C(C)(C)C3CCC12C
INCHI: InChI=1S/C42H72O13/c1-21(2)10-9-14-42(8,55-37-35(51)33(49)31(47)25(20-44)53-37)22-11-16-41(7)29(22)23(45)18-27-39(5)15-13-28(38(3,4)26(39)12-17-40(27,41)6)54-36-34(50)32(48)30(46)24(19-43)52-36/h10,22-37,43-51H,9,11-20H2,1-8H3
INCHIKEY: SWIROVJVGRGSPO-UHFFFAOYSA-N
RETENTIONTIME: 7.656466
COMMENT: dataset=RIKEN_MONA; source_file=external_data/raw_libraries/RIKEN_MONA.xlsx; source_row=166; RT_sec=459.38796
Num Peaks: 21
71.014940 7.300000
89.022610 4.300000
89.026870 4.900000
101.025040 2.600000
113.027190 3.000000
119.032370 6.500000
131.035920 4.400000
143.027950 2.100000
143.039570 1.900000
145.040510 2.000000
153.691730 1.900000
161.047410 14.700000
179.053100 1.900000
179.060520 4.600000
432.795260 1.900000
537.323240 2.000000
621.415530 3.700000
621.438480 14.800000
621.466310 2.300000
622.432860 8.500000
783.484860 100.000000

NAME: Ginsenoside F3
SCANNUMBER: RIKEN_MONA_167
PRECURSORMZ: 771.488919
PRECURSORTYPE: [M+H]+
IONMODE: Positive
SPECTRUMTYPE: MS2
COLLISIONENERGY: 10 eV
FORMULA: C41H70O13
SMILES: CC(C)=CCC[C@@](C)(O[C@H]1O[C@@H](CO[C@H]2OC[C@H](O)[C@H](O)[C@H]2O)[C@H](O)[C@@H](O)[C@@H]1O)[C@H]1CC[C@@]2(C)[C@@H]1[C@@H](O)C[C@H]1[C@]3(C)CC[C@@H](O)C(C)(C)[C@@H]3[C@H](O)C[C@@]12C
INCHI: InChI=1S/C41H70O13/c1-20(2)10-9-13-41(8,54-36-33(50)31(48)30(47)25(53-36)19-52-35-32(49)29(46)24(44)18-51-35)21-11-15-39(6)28(21)22(42)16-26-38(5)14-12-27(45)37(3,4)34(38)23(43)17-40(26,39)7/h10,21-36,42-50H,9,11-19H2,1-8H3/t21-,22-,23+,24-,25-,26-,27+,28-,29-,30-,31+,32+,33-,34-,35+,36+,38-,39-,40-,41+/m0/s1
INCHIKEY: HJRVLGWTJSLQIG-TVOOLRDFSA-N
RETENTIONTIME: 6.114900
COMMENT: dataset=RIKEN_MONA; source_file=external_data/raw_libraries/RIKEN_MONA.xlsx; source_row=167; RT_sec=366.893999999999
Num Peaks: 61
115.036670 12.100000
116.037510 7.000000
133.052830 5.900000
145.052890 5.900000
146.050230 6.200000
149.133010 5.900000
161.143330 6.200000
163.060330 39.000000
165.160630 5.900000
181.041600 5.900000
181.075680 7.400000
187.143970 5.900000
189.158070 8.800000
193.192120 6.600000
203.141430 6.600000
203.179920 7.400000
203.190340 5.900000
207.188340 11.400000
215.184780 7.000000
217.185680 6.200000
223.038850 8.800000
223.148740 5.900000
224.064710 6.600000
227.177610 5.900000
229.040470 6.600000
229.162220 5.900000
241.075440 11.800000
243.205920 5.900000
259.070250 15.400000
259.088290 23.500000
263.197940 7.400000
277.082520 9.200000
295.098660 100.000000
295.111020 38.200000
295.238980 11.800000
296.104550 6.200000
296.114900 5.900000
296.199400 5.900000
313.115540 41.500000
314.118010 6.200000
369.985500 9.200000
405.347930 5.900000
406.362090 6.200000
423.346040 7.000000
423.375340 6.200000
440.745610 6.200000
441.287230 6.600000
441.378330 15.400000
459.391850 6.600000
460.404300 5.900000
500.348750 5.900000
527.334290 9.600000
557.417240 6.200000
591.439820 6.600000
603.425350 7.700000
604.420960 6.200000
735.470520 6.600000
736.476750 6.200000
753.478330 5.900000
753.508060 6.600000
771.495360 13.600000

NAME: Ginsenoside Rb1
SCANNUMBER: RIKEN_MONA_168
PRECURSORMZ: 1109.610216
PRECURSORTYPE: [M+H]+
IONMODE: Positive
SPECTRUMTYPE: MS2
COLLISIONENERGY: 10 eV
FORMULA: C54H92O23
SMILES: CC(C)=CCC[C@](C)(O[C@@H]1O[C@H](CO[C@@H]2O[C@H](CO)[C@@H](O)[C@H](O)[C@H]2O)[C@@H](O)[C@H](O)[C@H]1O)[C@H]1CC[C@]2(C)[C@@H]1[C@H](O)C[C@@H]1[C@@]3(C)CC[C@H](O[C@@H]4O[C@H](CO)[C@@H](O)[C@H](O)[C@H]4O[C@@H]4O[C@H](CO)[C@@H](O)[C@H](O)[C@H]4O)C(C)(C)[C@@H]3CC[C@]12C
INCHI: InChI=1S/C54H92O23/c1-23(2)10-9-14-54(8,77-48-44(69)40(65)37(62)29(74-48)22-70-46-42(67)38(63)34(59)26(19-55)71-46)24-11-16-53(7)33(24)25(58)18-31-51(5)15-13-32(50(3,4)30(51)12-17-52(31,53)6)75-49-45(41(66)36(61)28(21-57)73-49)76-47-43(68)39(64)35(60)27(20-56)72-47/h10,24-49,55-69H,9,11-22H2,1-8H3/t24-,25+,26+,27+,28+,29+,30-,31+,32-,33-,34+,35+,36+,37+,38-,39-,40-,41-,42+,43+,44+,45+,46+,47-,48-,49-,51-,52+,53+,54-/m0/s1
INCHIKEY: GZYPWOGIYAIIPV-JBDTYSNRSA-N
RETENTIONTIME: 5.875216
COMMENT: dataset=RIKEN_MONA; source_file=external_data/raw_libraries/RIKEN_MONA.xlsx; source_row=168; RT_sec=352.51296
Num Peaks: 71
145.048190 6.000000
163.052780 5.700000
163.064220 2.600000
164.061520 2.900000
165.058870 2.600000
187.990830 3.900000
189.172990 2.800000
207.170320 3.100000
215.171020 5.400000
219.225340 2.900000
223.080730 3.100000
227.185960 2.600000
248.204830 3.300000
271.079990 3.400000
285.133940 4.800000
289.097750 3.100000
289.113890 2.800000
325.059270 3.400000
325.108000 100.000000
326.111180 16.300000
326.123200 16.600000
344.110930 5.600000
379.244290 3.400000
407.373020 5.700000
408.371950 3.400000
425.357480 2.600000
425.373630 5.400000
425.391420 6.000000
426.367520 6.200000
426.381560 3.900000
429.392400 3.600000
443.418550 3.600000
444.383760 5.600000
451.147460 3.400000
452.356570 3.400000
481.110440 2.600000
487.067110 3.700000
487.119050 3.100000
487.146970 18.100000
487.169830 15.300000
488.158970 7.000000
488.178380 6.800000
499.995120 3.100000
515.336730 3.100000
570.411440 3.300000
588.425960 3.100000
595.963200 3.300000
605.421510 2.800000
623.449710 3.400000
649.212650 8.800000
649.240600 3.700000
667.227540 26.400000
668.222660 2.600000
749.494930 5.600000
767.457400 3.300000
767.486020 4.700000
768.497130 8.700000
769.493900 2.600000
769.520020 5.600000
785.479740 7.900000
786.507570 8.200000
929.544250 4.300000
929.564150 2.600000
930.562680 2.600000
931.517150 3.100000
948.559450 2.800000
957.245120 3.300000
1091.586550 2.900000
1092.620850 6.400000
1109.601440 2.800000
1109.631590 2.900000

NAME: Ginsenoside Rb2
SCANNUMBER: RIKEN_MONA_169
PRECURSORMZ: 1079.599651
PRECURSORTYPE: [M+H]+
IONMODE: Positive
SPECTRUMTYPE: MS2
COLLISIONENERGY: 10 eV
FORMULA: C53H90O22
SMILES: CC(C)=CCCC(C)(OC1OC(COC2OCC(O)C(O)C2O)C(O)C(O)C1O)C1CCC2(C)C1C(O)CC1C3(C)CCC(OC4OC(CO)C(O)C(O)C4OC4OC(CO)C(O)C(O)C4O)C(C)(C)C3CCC12C
INCHI: InChI=1S/C53H90O22/c1-23(2)10-9-14-53(8,75-47-43(67)39(63)37(61)29(72-47)22-69-45-41(65)34(58)26(57)21-68-45)24-11-16-52(7)33(24)25(56)18-31-50(5)15-13-32(49(3,4)30(50)12-17-51(31,52)6)73-48-44(40(64)36(60)28(20-55)71-48)74-46-42(66)38(62)35(59)27(19-54)70-46/h10,24-48,54-67H,9,11-22H2,1-8H3
INCHIKEY: NODILNFGTFIURN-UHFFFAOYSA-N
RETENTIONTIME: 6.144100
COMMENT: dataset=RIKEN_MONA; source_file=external_data/raw_libraries/RIKEN_MONA.xlsx; source_row=169; RT_sec=368.646
Num Peaks: 73
99.080020 6.700000
127.038470 5.800000
128.114230 5.800000
133.043170 9.300000
133.049320 5.800000
145.050460 17.300000
147.073640 6.400000
149.129210 6.400000
156.085070 5.800000
163.061800 31.100000
181.068330 7.100000
182.103180 6.700000
189.181370 6.700000
199.070220 8.700000
203.165800 5.400000
203.178090 5.800000
241.074130 8.300000
257.214690 5.400000
257.227630 6.400000
259.068630 5.400000
261.219300 7.700000
277.081390 5.400000
277.108920 6.100000
289.089750 8.000000
295.101320 100.000000
296.104250 7.100000
311.275670 6.700000
313.108830 11.500000
321.383120 6.400000
324.829930 5.400000
325.105040 12.200000
345.754210 7.400000
351.293700 6.700000
369.228180 6.700000
394.683900 6.100000
407.377840 38.800000
409.380370 5.400000
425.374420 6.100000
426.377110 9.300000
426.390010 30.400000
427.386050 6.400000
436.378850 9.600000
443.353450 7.100000
443.395780 6.700000
444.375370 5.400000
457.152920 34.000000
458.158810 19.200000
459.175900 6.400000
476.163850 5.400000
495.625980 7.100000
503.686130 6.400000
605.443480 7.400000
607.212950 8.300000
619.194030 12.500000
619.227480 14.100000
620.199160 5.800000
621.223750 7.400000
637.218080 20.200000
637.239320 7.700000
640.234190 9.300000
654.761050 6.400000
756.506710 18.300000
767.474060 11.500000
768.495360 5.800000
769.495790 5.400000
863.535950 8.000000
899.531430 11.500000
901.571290 7.700000
917.546020 5.400000
918.581360 6.100000
975.234800 5.400000
1061.635500 6.400000
1079.603030 7.400000

NAME: Ginsenoside Rb3
SCANNUMBER: RIKEN_MONA_170
PRECURSORMZ: 1077.585099
PRECURSORTYPE: [M-H]-
IONMODE: Negative
SPECTRUMTYPE: MS2
COLLISIONENERGY: 10 eV
FORMULA: C53H90O22
SMILES: CCC(C)=CCCC(C)(OC1OC(COC2OCC(O)C(O)C2O)C(O)C(O)C1O)C1CCC2(C)C3CCC4C(C)(C)C(OC5OC(CO)C(O)C(O)C5OC5OC(CO)C(O)C(O)C5O)CCC4(C)C3CC(O)C12
INCHI: InChI=1S/C53H90O22/c1-8-23(2)10-9-15-53(7,75-48-44(67)40(63)38(61)31(72-48)22-69-46-42(65)35(58)28(57)21-68-46)25-13-16-52(6)24-11-12-32-50(3,4)33(14-17-51(32,5)26(24)18-27(56)34(25)52)73-49-45(41(64)37(60)30(20-55)71-49)74-47-43(66)39(62)36(59)29(19-54)70-47/h10,24-49,54-67H,8-9,11-22H2,1-7H3
INCHIKEY: SNPYJWZTTUVUIS-UHFFFAOYSA-N
RETENTIONTIME: 6.186333
COMMENT: dataset=RIKEN_MONA; source_file=external_data/raw_libraries/RIKEN_MONA.xlsx; source_row=170; RT_sec=371.17998
Num Peaks: 11
89.026120 1.000000
131.028670 0.600000
149.046050 5.500000
179.053560 0.700000
349.660280 0.600000
783.481260 1.300000
783.513180 1.100000
945.564880 0.500000
946.549560 1.000000
1077.584590 100.000000
1077.660770 2.900000

NAME: Ginsenoside Rc
SCANNUMBER: RIKEN_MONA_171
PRECURSORMZ: 1077.585099
PRECURSORTYPE: [M-H]-
IONMODE: Negative
SPECTRUMTYPE: MS2
COLLISIONENERGY: 10 eV
FORMULA: C53H90O22
SMILES: CC(C)=CCCC(C)(OC1OC(COC2OC(CO)C(O)C2O)C(O)C(O)C1O)C1CCC2(C)C1C(O)CC1C3(C)CCC(OC4OC(CO)C(O)C(O)C4OC4OC(CO)C(O)C(O)C4O)C(C)(C)C3CCC12C
INCHI: InChI=1S/C53H90O22/c1-23(2)10-9-14-53(8,75-47-43(67)39(63)37(61)29(72-47)22-68-45-41(65)36(60)28(21-56)69-45)24-11-16-52(7)33(24)25(57)18-31-50(5)15-13-32(49(3,4)30(50)12-17-51(31,52)6)73-48-44(40(64)35(59)27(20-55)71-48)74-46-42(66)38(62)34(58)26(19-54)70-46/h10,24-48,54-67H,9,11-22H2,1-8H3
INCHIKEY: JDCPEKQWFDWQLI-UHFFFAOYSA-N
RETENTIONTIME: 6.011000
COMMENT: dataset=RIKEN_MONA; source_file=external_data/raw_libraries/RIKEN_MONA.xlsx; source_row=171; RT_sec=360.66
Num Peaks: 27
89.023490 1.200000
113.015780 1.800000
131.031860 1.100000
161.052230 1.900000
180.131700 1.500000
191.052110 1.400000
220.412780 1.400000
221.073060 1.100000
251.077380 2.400000
337.150630 1.100000
604.411870 1.200000
621.416260 1.100000
645.102050 1.200000
669.604740 1.300000
704.344060 1.200000
743.202270 1.200000
765.479000 1.100000
784.490600 1.100000
946.547850 3.300000
947.548280 1.200000
1017.549740 1.300000
1069.917850 1.200000
1076.305300 1.400000
1076.749150 1.200000
1077.488650 1.200000
1077.583500 100.000000
1077.683110 1.300000

NAME: Ginsenoside Re
SCANNUMBER: RIKEN_MONA_172
PRECURSORMZ: 945.542839
PRECURSORTYPE: [M-H]-
IONMODE: Negative
SPECTRUMTYPE: MS2
COLLISIONENERGY: 10 eV
FORMULA: C48H82O18
SMILES: CC(C)=CCCC(C)(OC1OC(CO)C(O)C(O)C1O)C1CCC2(C)C1C(O)CC1C3(C)CCC(O)C(C)(C)C3C(OC3OC(CO)C(O)C(O)C3OC3OC(C)C(O)C(O)C3O)CC12C
INCHI: InChI=1S/C48H82O18/c1-21(2)11-10-14-48(9,66-42-38(60)35(57)32(54)26(19-49)63-42)23-12-16-46(7)30(23)24(51)17-28-45(6)15-13-29(52)44(4,5)40(45)25(18-47(28,46)8)62-43-39(36(58)33(55)27(20-50)64-43)65-41-37(59)34(56)31(53)22(3)61-41/h11,22-43,49-60H,10,12-20H2,1-9H3
INCHIKEY: PWAOOJDMFUQOKB-UHFFFAOYSA-N
RETENTIONTIME: 4.790450
COMMENT: dataset=RIKEN_MONA; source_file=external_data/raw_libraries/RIKEN_MONA.xlsx; source_row=172; RT_sec=287.427
Num Peaks: 7
621.421690 13.300000
637.426450 14.000000
637.449890 21.000000
783.500610 14.700000
878.500920 13.300000
945.534730 100.000000
945.583980 30.800000

NAME: Ginsenoside Rf
SCANNUMBER: RIKEN_MONA_173
PRECURSORMZ: 799.484931
PRECURSORTYPE: [M-H]-
IONMODE: Negative
SPECTRUMTYPE: MS2
COLLISIONENERGY: 10 eV
FORMULA: C42H72O14
SMILES: CC(C)=CCCC(C)(O)C1CCC2(C)C1C(O)CC1C3(C)CCC(O)C(C)(C)C3C(OC3OC(CO)C(O)C(O)C3OC3OC(CO)C(O)C(O)C3O)CC12C
INCHI: InChI=1S/C42H72O14/c1-20(2)10-9-13-42(8,52)21-11-15-40(6)28(21)22(45)16-26-39(5)14-12-27(46)38(3,4)35(39)23(17-41(26,40)7)53-37-34(32(50)30(48)25(19-44)55-37)56-36-33(51)31(49)29(47)24(18-43)54-36/h10,21-37,43-52H,9,11-19H2,1-8H3
INCHIKEY: UZIOUZHBUYLDHW-UHFFFAOYSA-N
RETENTIONTIME: 5.936983
COMMENT: dataset=RIKEN_MONA; source_file=external_data/raw_libraries/RIKEN_MONA.xlsx; source_row=173; RT_sec=356.21898
Num Peaks: 25
89.020260 1.200000
89.028930 1.200000
90.024570 2.100000
100.452060 1.300000
101.025960 1.300000
113.022430 2.400000
119.032790 2.500000
143.027500 1.600000
159.028590 1.100000
161.043200 4.300000
179.053650 1.100000
211.156830 1.700000
221.068390 1.200000
245.059400 1.200000
462.878850 1.700000
475.364560 1.200000
475.384550 2.600000
475.402800 1.200000
476.390170 1.100000
637.430240 2.800000
638.445920 2.300000
639.419740 1.900000
639.452510 1.100000
670.942020 1.100000
799.482910 100.000000

NAME: Ginsenoside Rg2
SCANNUMBER: RIKEN_MONA_174
PRECURSORMZ: 783.490016
PRECURSORTYPE: [M-H]-
IONMODE: Negative
SPECTRUMTYPE: MS2
COLLISIONENERGY: 10 eV
FORMULA: C42H72O13
SMILES: CC(C)=CCCC(C)(O)C1CCC2(C)C1C(O)CC1C3(C)CCC(O)C(C)(C)C3C(OC3OC(CO)C(O)C(O)C3OC3OC(C)C(O)C(O)C3O)CC12C
INCHI: InChI=1S/C42H72O13/c1-20(2)11-10-14-42(9,51)22-12-16-40(7)28(22)23(44)17-26-39(6)15-13-27(45)38(4,5)35(39)24(18-41(26,40)8)53-37-34(32(49)30(47)25(19-43)54-37)55-36-33(50)31(48)29(46)21(3)52-36/h11,21-37,43-51H,10,12-19H2,1-9H3
INCHIKEY: AGBCLJAHARWNLA-UHFFFAOYSA-N
RETENTIONTIME: 6.251600
COMMENT: dataset=RIKEN_MONA; source_file=external_data/raw_libraries/RIKEN_MONA.xlsx; source_row=174; RT_sec=375.096
Num Peaks: 6
103.040340 5.400000
161.055280 4.900000
517.393250 5.400000
637.437930 7.300000
783.455510 12.700000
783.487180 100.000000

NAME: Ginsenoside Rg3(R-FORM)
SCANNUMBER: RIKEN_MONA_175
PRECURSORMZ: 783.490016
PRECURSORTYPE: [M-H]-
IONMODE: Negative
SPECTRUMTYPE: MS2
COLLISIONENERGY: 10 eV
FORMULA: C42H72O13
SMILES: CC(C)=CCCC(C)(O)C1CCC2(C)C1C(O)CC1C3(C)CCC(OC4OC(CO)C(O)C(O)C4OC4OC(CO)C(O)C(O)C4O)C(C)(C)C3CCC12C
INCHI: InChI=1S/C42H72O13/c1-21(2)10-9-14-42(8,51)22-11-16-41(7)29(22)23(45)18-27-39(5)15-13-28(38(3,4)26(39)12-17-40(27,41)6)54-37-35(33(49)31(47)25(20-44)53-37)55-36-34(50)32(48)30(46)24(19-43)52-36/h10,22-37,43-51H,9,11-20H2,1-8H3
INCHIKEY: RWXIFXNRCLMQCD-UHFFFAOYSA-N
RETENTIONTIME: 8.305883
COMMENT: dataset=RIKEN_MONA; source_file=external_data/raw_libraries/RIKEN_MONA.xlsx; source_row=175; RT_sec=498.35298
Num Peaks: 19
85.027040 1.000000
101.022940 9.000000
102.027500 1.200000
113.033890 1.300000
114.939740 1.300000
119.038610 2.200000
156.197880 2.300000
161.043690 4.200000
460.401430 2.700000
514.392330 1.300000
537.360780 1.000000
621.414610 1.200000
621.439450 1.500000
621.455630 1.600000
622.441590 1.000000
623.429690 2.000000
651.415950 1.700000
783.387570 1.400000
783.492310 100.000000

NAME: Ginsenoside Rg5
SCANNUMBER: RIKEN_MONA_176
PRECURSORMZ: 767.494004
PRECURSORTYPE: [M+H]+
IONMODE: Positive
SPECTRUMTYPE: MS2
COLLISIONENERGY: 10 eV
FORMULA: C42H70O12
SMILES: CC(C)=CC/C=C(/C)[C@H]1CC[C@]2(C)[C@@H]1[C@H](O)C[C@@H]1[C@@]3(C)CC[C@H](O[C@@H]4O[C@H](CO)[C@@H](O)[C@H](O)[C@H]4O[C@@H]4O[C@H](CO)[C@@H](O)[C@H](O)[C@H]4O)C(C)(C)[C@@H]3CC[C@]12C
INCHI: InChI=1S/C42H70O12/c1-21(2)10-9-11-22(3)23-12-16-42(8)30(23)24(45)18-28-40(6)15-14-29(39(4,5)27(40)13-17-41(28,42)7)53-38-36(34(49)32(47)26(20-44)52-38)54-37-35(50)33(48)31(46)25(19-43)51-37/h10-11,23-38,43-50H,9,12-20H2,1-8H3/b22-11-/t23-,24-,25-,26-,27+,28-,29+,30+,31-,32-,33+,34+,35-,36-,37+,38+,40+,41-,42-/m1/s1
INCHIKEY: NJUXRKMKOFXMRX-OOFHPJNRSA-N
RETENTIONTIME: 9.632883
COMMENT: dataset=RIKEN_MONA; source_file=external_data/raw_libraries/RIKEN_MONA.xlsx; source_row=176; RT_sec=577.97298
Num Peaks: 45
121.099490 10.300000
127.107150 37.400000
145.047940 13.500000
147.118180 12.900000
149.126240 21.900000
163.062900 26.500000
179.148220 10.300000
189.150970 24.500000
189.166900 11.000000
189.175220 11.000000
191.185150 11.600000
204.190440 10.300000
208.159930 13.500000
217.162960 11.000000
217.181030 10.300000
241.196460 11.600000
245.230940 14.800000
262.224210 16.100000
271.707790 12.900000
272.256410 10.300000
289.081940 12.900000
295.246640 14.800000
349.236820 18.700000
369.332700 21.900000
370.233520 11.000000
407.351100 21.900000
407.366360 72.300000
408.369140 21.300000
409.385380 12.900000
425.380000 100.000000
425.406460 11.000000
426.381810 34.200000
443.395390 10.300000
459.329650 11.600000
486.330600 10.300000
502.372310 10.300000
521.371770 10.300000
551.393250 11.600000
569.416990 10.300000
588.443120 21.900000
605.465030 11.000000
606.472470 11.000000
767.439820 12.300000
767.480530 48.400000
767.510440 37.400000

NAME: Ginsenoside Rg6
SCANNUMBER: RIKEN_MONA_177
PRECURSORMZ: 765.479451
PRECURSORTYPE: [M-H]-
IONMODE: Negative
SPECTRUMTYPE: MS2
COLLISIONENERGY: 10 eV
FORMULA: C42H70O12
SMILES: C=C(CCC=C(C)C)C1CCC2(C)C1C(O)CC1C3(C)CCC(O)C(C)(C)C3C(OC3OC(CO)C(O)C(O)C3OC3OC(C)C(O)C(O)C3O)CC12C
INCHI: InChI=1S/C42H70O12/c1-20(2)11-10-12-21(3)23-13-16-41(8)29(23)24(44)17-27-40(7)15-14-28(45)39(5,6)36(40)25(18-42(27,41)9)52-38-35(33(49)31(47)26(19-43)53-38)54-37-34(50)32(48)30(46)22(4)51-37/h11,22-38,43-50H,3,10,12-19H2,1-2,4-9H3
INCHIKEY: ZVTVWDXRNMHGNY-UHFFFAOYSA-N
RETENTIONTIME: 7.570883
COMMENT: dataset=RIKEN_MONA; source_file=external_data/raw_libraries/RIKEN_MONA.xlsx; source_row=177; RT_sec=454.25298
Num Peaks: 10
89.020650 2.500000
101.024090 3.700000
145.051700 3.100000
159.033360 3.100000
161.043110 6.600000
163.058440 2.500000
205.072800 4.200000
365.111820 2.500000
620.420170 2.500000
765.481690 100.000000

NAME: Ginsenoside Rh1
SCANNUMBER: RIKEN_MONA_178
PRECURSORMZ: 683.437586
PRECURSORTYPE: [M+FA-H]-
IONMODE: Negative
SPECTRUMTYPE: MS2
COLLISIONENERGY: 10 eV
FORMULA: C36H62O9
SMILES: CC(C)=CCCC(C)(O)C1CCC2(C)C1C(O)CC1C3(C)CCC(O)C(C)(C)C3C(OC3OC(CO)C(O)C(O)C3O)CC12C
INCHI: InChI=1S/C36H62O9/c1-19(2)10-9-13-36(8,43)20-11-15-34(6)26(20)21(38)16-24-33(5)14-12-25(39)32(3,4)30(33)22(17-35(24,34)7)44-31-29(42)28(41)27(40)23(18-37)45-31/h10,20-31,37-43H,9,11-18H2,1-8H3
INCHIKEY: RAQNTCRNSXYLAH-UHFFFAOYSA-N
RETENTIONTIME: 6.292917
COMMENT: dataset=RIKEN_MONA; source_file=external_data/raw_libraries/RIKEN_MONA.xlsx; source_row=178; RT_sec=377.57502
Num Peaks: 7
101.023910 0.800000
161.046140 1.600000
475.368990 0.600000
476.381900 0.600000
637.431030 4.500000
638.438540 1.800000
683.436460 100.000000

NAME: Ginsenoside Rh2 (S-FORM)
SCANNUMBER: RIKEN_MONA_179
PRECURSORMZ: 667.442672
PRECURSORTYPE: [M+FA-H]-
IONMODE: Negative
SPECTRUMTYPE: MS2
COLLISIONENERGY: 10 eV
FORMULA: C36H62O8
SMILES: CC(C)=CCCC(C)(O)C1CCC2(C)C1C(O)CC1C3(C)CCC(OC4OC(CO)C(O)C(O)C4O)C(C)(C)C3CCC12C
INCHI: InChI=1S/C36H62O8/c1-20(2)10-9-14-36(8,42)21-11-16-35(7)27(21)22(38)18-25-33(5)15-13-26(32(3,4)24(33)12-17-34(25,35)6)44-31-30(41)29(40)28(39)23(19-37)43-31/h10,21-31,37-42H,9,11-19H2,1-8H3
INCHIKEY: CKUVNOCSBYYHIS-UHFFFAOYSA-N
RETENTIONTIME: 9.842167
COMMENT: dataset=RIKEN_MONA; source_file=external_data/raw_libraries/RIKEN_MONA.xlsx; source_row=179; RT_sec=590.53002
Num Peaks: 2
621.435550 1.700000
667.442380 100.000000

NAME: Ginsenoside Rh3
SCANNUMBER: RIKEN_MONA_180
PRECURSORMZ: 605.441181
PRECURSORTYPE: [M+H]+
IONMODE: Positive
SPECTRUMTYPE: MS2
COLLISIONENERGY: 10 eV
FORMULA: C36H60O7
SMILES: CC(C)=CC/C=C(/C)[C@H]1CC[C@@]2(C)[C@@H]1[C@@H](O)CC1[C@@]3(C)CCC(O[C@@H]4O[C@H](CO)[C@@H](O)[C@H](O)[C@H]4O)C(C)(C)C3CC[C@]12C
INCHI: InChI=1S/C36H60O7/c1-20(2)10-9-11-21(3)22-12-16-36(8)28(22)23(38)18-26-34(6)15-14-27(33(4,5)25(34)13-17-35(26,36)7)43-32-31(41)30(40)29(39)24(19-37)42-32/h10-11,22-32,37-41H,9,12-19H2,1-8H3/b21-11-/t22-,23+,24-,25?,26?,27?,28+,29-,30+,31-,32+,34+,35-,36+/m1/s1
INCHIKEY: PHLXREOMFNVWOH-WJJFPOJFSA-N
RETENTIONTIME: 7.631933
COMMENT: dataset=RIKEN_MONA; source_file=external_data/raw_libraries/RIKEN_MONA.xlsx; source_row=180; RT_sec=457.91598
Num Peaks: 41
109.105170 8.600000
121.099220 3.700000
135.113540 2.500000
149.132220 2.500000
163.147280 3.200000
175.155780 3.000000
177.173460 2.500000
178.169970 2.900000
189.164180 2.700000
189.175520 2.500000
190.167650 2.700000
191.182570 7.500000
192.188640 3.200000
193.125110 2.500000
193.182080 4.600000
203.174390 2.700000
203.185410 2.900000
205.191360 2.900000
217.203000 3.500000
219.206890 3.200000
221.203230 3.200000
227.176410 2.500000
259.226990 4.000000
304.260960 2.500000
310.259000 3.700000
322.259490 2.700000
322.313260 4.100000
343.311310 4.300000
407.367000 2.500000
407.379240 3.000000
408.363160 3.000000
425.373020 13.100000
493.321780 2.500000
587.401180 5.700000
587.422910 6.500000
588.411130 2.500000
588.431820 4.500000
593.787840 2.900000
605.432680 100.000000
605.473750 6.700000
605.484920 2.700000

NAME: Ginsenoside Ro
SCANNUMBER: RIKEN_MONA_181
PRECURSORMZ: 957.505357
PRECURSORTYPE: [M+H]+
IONMODE: Positive
SPECTRUMTYPE: MS2
COLLISIONENERGY: 10 eV
FORMULA: C48H76O19
SMILES: CC1(C)CC[C@]2(C(=O)O[C@@H]3O[C@H](CO)[C@@H](O)[C@H](O)[C@H]3O)CC[C@]3(C)C(=CC[C@@H]4[C@@]5(C)CC[C@H](O[C@@H]6O[C@H](C(=O)O)[C@@H](O)[C@H](O)[C@H]6O[C@@H]6O[C@H](CO)[C@@H](O)[C@H](O)[C@H]6O)C(C)(C)[C@@H]5CC[C@]43C)[C@@H]2C1
INCHI: InChI=1S/C48H76O19/c1-43(2)14-16-48(42(61)67-40-35(58)31(54)29(52)24(20-50)63-40)17-15-46(6)21(22(48)18-43)8-9-26-45(5)12-11-27(44(3,4)25(45)10-13-47(26,46)7)64-41-37(33(56)32(55)36(65-41)38(59)60)66-39-34(57)30(53)28(51)23(19-49)62-39/h8,22-37,39-41,49-58H,9-20H2,1-7H3,(H,59,60)/t22-,23+,24+,25-,26+,27-,28+,29+,30-,31-,32-,33-,34+,35+,36-,37+,39-,40-,41+,45-,46+,47+,48-/m0/s1
INCHIKEY: NFZYDZXHKFHPGA-QQHDHSITSA-N
RETENTIONTIME: 6.177866
COMMENT: dataset=RIKEN_MONA; source_file=external_data/raw_libraries/RIKEN_MONA.xlsx; source_row=181; RT_sec=370.67196
Num Peaks: 13
141.009950 9.500000
146.050250 16.800000
204.191160 21.200000
303.059690 10.600000
315.219880 10.600000
321.072630 13.400000
321.091800 11.700000
336.733220 10.100000
394.358030 9.500000
439.356110 100.000000
440.375820 14.000000
501.152890 9.500000
633.395750 12.800000

NAME: Ginsenoside compound K
SCANNUMBER: RIKEN_MONA_182
PRECURSORMZ: 623.451745
PRECURSORTYPE: [M+H]+
IONMODE: Positive
SPECTRUMTYPE: MS2
COLLISIONENERGY: 10 eV
FORMULA: C36H62O8
SMILES: CC(C)=CCC[C@](C)(O[C@@H]1O[C@H](CO)[C@@H](O)[C@H](O)[C@H]1O)[C@H]1CC[C@]2(C)[C@@H]1[C@H](O)C[C@@H]1[C@@]3(C)CC[C@H](O)C(C)(C)[C@@H]3CC[C@]12C
INCHI: InChI=1S/C36H62O8/c1-20(2)10-9-14-36(8,44-31-30(42)29(41)28(40)23(19-37)43-31)21-11-16-35(7)27(21)22(38)18-25-33(5)15-13-26(39)32(3,4)24(33)12-17-34(25,35)6/h10,21-31,37-42H,9,11-19H2,1-8H3/t21-,22+,23+,24-,25+,26-,27-,28+,29-,30+,31-,33-,34+,35+,36-/m0/s1
INCHIKEY: FVIZARNDLVOMSU-IRFFNABBSA-N
RETENTIONTIME: 9.509533
COMMENT: dataset=RIKEN_MONA; source_file=external_data/raw_libraries/RIKEN_MONA.xlsx; source_row=182; RT_sec=570.571979999999
Num Peaks: 45
93.074070 10.100000
109.087590 15.400000
127.106020 10.100000
137.131230 9.500000
147.117190 10.100000
149.128190 20.100000
149.144130 13.600000
151.152400 10.700000
165.167590 9.500000
171.124450 10.100000
175.150150 12.400000
177.163190 10.700000
203.180790 20.100000
205.199770 10.700000
207.178150 9.500000
211.124390 11.800000
213.166060 11.800000
215.181530 11.800000
217.202120 11.800000
221.173900 9.500000
221.185840 9.500000
229.200450 9.500000
263.166930 10.700000
299.274630 10.700000
313.232850 10.700000
340.309480 9.500000
370.311950 9.500000
370.339360 13.600000
408.352140 9.500000
408.385250 10.100000
409.374270 10.100000
425.371640 100.000000
425.394230 29.600000
426.360530 9.500000
426.377840 10.100000
443.379300 47.900000
443.404140 46.200000
444.369750 10.100000
444.386810 9.500000
445.396060 18.300000
539.420840 9.500000
605.449580 9.500000
606.460390 21.900000
623.441100 13.600000
623.466610 9.500000

NAME: Ginsenoside-Rg1
SCANNUMBER: RIKEN_MONA_183
PRECURSORMZ: 845.490410
PRECURSORTYPE: [M+FA-H]-
IONMODE: Negative
SPECTRUMTYPE: MS2
COLLISIONENERGY: 10 eV
FORMULA: C42H72O14
SMILES: CC(C)=CCCC(C)(OC1OC(CO)C(O)C(O)C1O)C1CCC2(C)C1C(O)CC1C3(C)CCC(O)C(C)(C)C3C(OC3OC(CO)C(O)C(O)C3O)CC12C
INCHI: InChI=1S/C42H72O14/c1-20(2)10-9-13-42(8,56-37-34(52)32(50)30(48)25(19-44)55-37)21-11-15-40(6)28(21)22(45)16-26-39(5)14-12-27(46)38(3,4)35(39)23(17-41(26,40)7)53-36-33(51)31(49)29(47)24(18-43)54-36/h10,21-37,43-52H,9,11-19H2,1-8H3
INCHIKEY: YURJSTAIMNSZAE-UHFFFAOYSA-N
RETENTIONTIME: 4.799150
COMMENT: dataset=RIKEN_MONA; source_file=external_data/raw_libraries/RIKEN_MONA.xlsx; source_row=183; RT_sec=287.949
Num Peaks: 18
89.023770 2.300000
101.024120 1.500000
113.024970 0.800000
119.033650 2.000000
143.030360 0.600000
149.041630 0.900000
161.044560 4.100000
179.053040 2.100000
475.379850 2.000000
476.388580 0.700000
637.418150 3.600000
637.432680 7.300000
638.437620 3.300000
799.483280 17.800000
800.483030 8.000000
801.485290 1.300000
801.506900 0.600000
845.488280 100.000000

NAME: Gossypetin-8-C-glucoside
SCANNUMBER: RIKEN_MONA_184
PRECURSORMZ: 481.097667
PRECURSORTYPE: [M+H]+
IONMODE: Positive
SPECTRUMTYPE: MS2
COLLISIONENERGY: 10 eV
FORMULA: C21H20O13
SMILES: O=c1c(O)c(-c2ccc(O)c(O)c2)oc2c(O[C@@H]3O[C@H](CO)[C@@H](O)[C@H](O)[C@H]3O)c(O)cc(O)c12
INCHI: InChI=1S/C21H20O13/c22-5-11-13(27)15(29)17(31)21(32-11)34-19-10(26)4-9(25)12-14(28)16(30)18(33-20(12)19)6-1-2-7(23)8(24)3-6/h1-4,11,13,15,17,21-27,29-31H,5H2/t11-,13-,15+,17-,21+/m1/s1
INCHIKEY: SJRXVLUZMMDCNG-KKPQBLLMSA-N
RETENTIONTIME: 4.639350
COMMENT: dataset=RIKEN_MONA; source_file=external_data/raw_libraries/RIKEN_MONA.xlsx; source_row=184; RT_sec=278.361
Num Peaks: 12
137.025250 5.600000
180.994510 4.300000
245.032560 6.300000
274.054050 5.600000
319.043520 100.000000
320.049220 31.500000
330.485900 3.800000
334.291110 3.800000
358.000890 3.800000
461.135410 3.800000
481.088870 15.300000
481.111850 27.000000

NAME: Gramine
SCANNUMBER: RIKEN_MONA_185
PRECURSORMZ: 175.122975
PRECURSORTYPE: [M+H]+
IONMODE: Positive
SPECTRUMTYPE: MS2
COLLISIONENERGY: 10 eV
FORMULA: C11H14N2
SMILES: CN(C)Cc1c[nH]c2ccccc12
INCHI: InChI=1S/C11H14N2/c1-13(2)8-9-7-12-11-6-4-3-5-10(9)11/h3-7,12H,8H2,1-2H3
INCHIKEY: OCDGBSUVYYVKQZ-UHFFFAOYSA-N
RETENTIONTIME: 3.061083
COMMENT: dataset=RIKEN_MONA; source_file=external_data/raw_libraries/RIKEN_MONA.xlsx; source_row=185; RT_sec=183.66498
Num Peaks: 3
130.050740 11.800000
130.064450 100.000000
132.069050 9.500000

NAME: Guan-fu base Y
SCANNUMBER: RIKEN_MONA_186
PRECURSORMZ: 388.211850
PRECURSORTYPE: [M+H]+
IONMODE: Positive
SPECTRUMTYPE: MS2
COLLISIONENERGY: 10 eV
FORMULA: C22H29NO5
SMILES: C=C1C[C@@]23C[C@H]4[C@H]5[C@]67CC(OC(C)=O)C[C@@]5(C)CN4[C@H]6[C@@]2(O)C(O)[C@H]1[C@@H](O)[C@@H]73
INCHI: InChI=1S/C22H29NO5/c1-9-4-20-7-12-15-19(3)5-11(28-10(2)24)6-21(15)16(20)14(25)13(9)17(26)22(20,27)18(21)23(12)8-19/h11-18,25-27H,1,4-8H2,2-3H3/t11?,12-,13+,14+,15+,16+,17?,18+,19-,20-,21-,22-/m0/s1
INCHIKEY: XGTNTUKODZZCGL-PADQQNNYSA-N
RETENTIONTIME: 3.030383
COMMENT: dataset=RIKEN_MONA; source_file=external_data/raw_libraries/RIKEN_MONA.xlsx; source_row=186; RT_sec=181.82298
Num Peaks: 18
105.071590 1.000000
144.082080 4.900000
145.085310 0.600000
149.098800 0.600000
158.097760 0.600000
264.176030 3.900000
265.184270 0.600000
282.185460 0.500000
292.170530 10.100000
293.175510 2.300000
310.182680 1.300000
323.187160 0.500000
324.198730 1.000000
328.193120 2.700000
329.194430 0.700000
352.190190 3.000000
388.212190 100.000000
388.268370 2.200000

NAME: Harmalol
SCANNUMBER: RIKEN_MONA_187
PRECURSORMZ: 201.102239
PRECURSORTYPE: [M+H]+
IONMODE: Positive
SPECTRUMTYPE: MS2
COLLISIONENERGY: 10 eV
FORMULA: C12H12N2O
SMILES: CC1=c2[nH]c3c(c2CCN1)C=CC(=O)C=3
INCHI: InChI=1S/C12H12N2O/c1-7-12-10(4-5-13-7)9-3-2-8(15)6-11(9)14-12/h2-3,6,13-14H,4-5H2,1H3
INCHIKEY: CRQDWQWZCNKKAC-UHFFFAOYSA-N
RETENTIONTIME: 3.059300
COMMENT: dataset=RIKEN_MONA; source_file=external_data/raw_libraries/RIKEN_MONA.xlsx; source_row=187; RT_sec=183.558
Num Peaks: 18
68.050220 1.100000
115.053630 0.900000
128.054370 0.500000
132.076110 0.900000
140.048450 0.500000
158.060330 1.100000
159.064330 0.900000
160.075040 19.100000
161.080280 1.700000
167.069400 1.500000
183.065660 1.200000
184.073260 5.000000
185.075970 1.300000
186.066640 0.800000
186.081300 1.500000
201.062380 0.700000
201.102710 100.000000
201.143420 2.600000

NAME: Harmane
SCANNUMBER: RIKEN_MONA_188
PRECURSORMZ: 183.091675
PRECURSORTYPE: [M+H]+
IONMODE: Positive
SPECTRUMTYPE: MS2
COLLISIONENERGY: 10 eV
FORMULA: C12H10N2
SMILES: Cc1nccc2c1[nH]c1ccccc12
INCHI: InChI=1S/C12H10N2/c1-8-12-10(6-7-13-8)9-4-2-3-5-11(9)14-12/h2-7,14H,1H3
INCHIKEY: PSFDQSOCUJVVGF-UHFFFAOYSA-N
RETENTIONTIME: 3.698767
COMMENT: dataset=RIKEN_MONA; source_file=external_data/raw_libraries/RIKEN_MONA.xlsx; source_row=188; RT_sec=221.92602
Num Peaks: 9
115.055040 8.100000
116.060170 0.600000
142.066470 1.700000
167.057270 0.700000
168.068570 2.900000
182.079390 1.000000
182.087750 1.700000
183.091740 100.000000
183.129580 2.500000

NAME: Harmine
SCANNUMBER: RIKEN_MONA_189
PRECURSORMZ: 213.102239
PRECURSORTYPE: [M+H]+
IONMODE: Positive
SPECTRUMTYPE: MS2
COLLISIONENERGY: 10 eV
FORMULA: C13H12N2O
SMILES: COc1ccc2c(c1)[nH]c1c(C)nccc12
INCHI: InChI=1S/C13H12N2O/c1-8-13-11(5-6-14-8)10-4-3-9(16-2)7-12(10)15-13/h3-7,15H,1-2H3
INCHIKEY: BXNJHAXVSOCGBA-UHFFFAOYSA-N
RETENTIONTIME: 4.105350
COMMENT: dataset=RIKEN_MONA; source_file=external_data/raw_libraries/RIKEN_MONA.xlsx; source_row=189; RT_sec=246.320999999999
Num Peaks: 8
144.081040 1.000000
169.077390 7.000000
170.084350 28.000000
171.086090 3.200000
198.080600 19.500000
199.084790 4.000000
213.102720 100.000000
213.144070 2.100000

NAME: Harmol
SCANNUMBER: RIKEN_MONA_190
PRECURSORMZ: 199.086589
PRECURSORTYPE: [M+H]+
IONMODE: Positive
SPECTRUMTYPE: MS2
COLLISIONENERGY: 10 eV
FORMULA: C12H10N2O
SMILES: Cc1nccc2c1[nH]c1cc(O)ccc12
INCHI: InChI=1S/C12H10N2O/c1-7-12-10(4-5-13-7)9-3-2-8(15)6-11(9)14-12/h2-6,14-15H,1H3
INCHIKEY: SATMZMMKDDTOSQ-UHFFFAOYSA-N
RETENTIONTIME: 3.177100
COMMENT: dataset=RIKEN_MONA; source_file=external_data/raw_libraries/RIKEN_MONA.xlsx; source_row=190; RT_sec=190.625999999999
Num Peaks: 20
103.052610 1.300000
131.045590 1.400000
131.051500 3.500000
132.049180 0.700000
154.071300 0.500000
155.057270 0.600000
156.065220 0.600000
156.074280 0.700000
158.057510 0.500000
169.082600 0.600000
170.082030 1.100000
170.091860 0.500000
171.081670 1.100000
171.094090 6.700000
184.056760 0.800000
184.065160 1.600000
198.064590 0.500000
198.083650 0.800000
199.088000 100.000000
199.128750 1.700000

NAME: Hederacoside C
SCANNUMBER: RIKEN_MONA_191
PRECURSORMZ: 1221.626260
PRECURSORTYPE: [M+H]+
IONMODE: Positive
SPECTRUMTYPE: MS2
COLLISIONENERGY: 10 eV
FORMULA: C59H96O26
SMILES: C[C@@H]1O[C@@H](O[C@@H]2[C@@H](CO)O[C@@H](OC[C@H]3O[C@@H](OC(=O)[C@]45CCC(C)(C)C[C@H]4C4=CC[C@@H]6[C@@]7(C)CC[C@H](O[C@@H]8OC[C@H](O)[C@H](O)[C@H]8O[C@@H]8O[C@@H](C)[C@H](O)[C@@H](O)[C@H]8O)[C@@](C)(CO)[C@@H]7CC[C@@]6(C)[C@]4(C)CC5)[C@H](O)[C@@H](O)[C@@H]3O)[C@H](O)[C@H]2O)[C@H](O)[C@H](O)[C@H]1O
INCHI: InChI=1S/C59H96O26/c1-24-34(63)38(67)42(71)49(78-24)83-46-29(20-60)80-48(45(74)41(46)70)77-22-30-37(66)40(69)44(73)51(81-30)85-53(75)59-17-15-54(3,4)19-27(59)26-9-10-32-55(5)13-12-33(56(6,23-61)31(55)11-14-58(32,8)57(26,7)16-18-59)82-52-47(36(65)28(62)21-76-52)84-50-43(72)39(68)35(64)25(2)79-50/h9,24-25,27-52,60-74H,10-23H2,1-8H3/t24-,25-,27-,28-,29+,30+,31+,32+,33-,34-,35-,36-,37+,38+,39+,40-,41+,42+,43+,44+,45+,46+,47+,48+,49-,50-,51-,52-,55-,56-,57+,58+,59-/m0/s1
INCHIKEY: RYHDIBJJJRNDSX-MCGLQMIESA-N
RETENTIONTIME: 5.378050
COMMENT: dataset=RIKEN_MONA; source_file=external_data/raw_libraries/RIKEN_MONA.xlsx; source_row=191; RT_sec=322.683
Num Peaks: 183
63.891870 4.500000
69.039820 4.700000
111.045830 3.800000
122.600770 4.300000
129.000000 4.000000
129.055180 4.500000
129.111420 6.700000
129.937470 3.800000
130.057080 4.700000
145.050700 4.700000
147.063200 4.700000
147.068120 7.200000
163.061280 8.300000
179.072370 4.500000
207.163220 3.800000
237.060560 4.500000
239.100480 4.300000
241.069530 3.800000
243.091380 5.600000
249.191150 4.700000
255.091830 4.300000
256.833190 4.300000
257.088710 5.200000
257.098790 9.000000
258.109800 5.200000
259.080410 4.700000
261.076170 4.500000
261.097500 9.200000
261.177060 5.200000
269.677950 4.500000
273.087310 9.200000
273.099330 9.200000
279.093660 8.500000
279.113040 28.000000
280.110990 9.000000
285.271180 4.300000
293.074340 5.400000
293.126070 78.900000
294.138460 4.900000
295.094540 13.900000
309.113100 12.800000
309.124760 18.400000
310.117370 9.400000
311.141140 4.700000
349.243320 4.700000
352.639680 3.800000
359.014220 4.500000
388.131870 3.800000
390.162510 5.200000
397.304440 9.000000
398.318730 4.500000
399.136960 4.000000
401.096310 4.500000
405.131040 4.500000
408.149540 3.800000
409.335750 15.500000
409.350190 6.100000
410.347530 4.300000
411.383300 8.300000
419.142940 4.900000
419.161590 20.400000
423.304570 4.500000
425.138520 4.000000
425.164370 4.000000
425.349640 4.000000
426.354740 4.000000
427.340820 3.800000
436.057190 6.500000
437.173000 6.100000
437.309420 4.900000
437.322390 6.500000
437.350280 37.200000
438.349520 19.100000
439.173280 5.400000
439.353760 4.900000
441.127960 4.700000
441.143680 10.100000
441.172150 18.200000
454.165500 4.000000
455.173920 35.900000
455.202150 6.300000
455.346890 51.300000
456.357480 18.400000
457.145810 4.500000
457.385990 6.100000
458.367030 3.800000
459.166380 5.600000
471.160860 14.300000
471.176730 21.500000
473.343380 3.800000
473.361110 8.700000
541.446290 5.600000
567.377380 9.200000
567.413090 3.800000
569.183840 4.700000
581.253540 5.600000
582.218630 7.600000
583.402770 9.400000
587.191590 5.400000
587.218200 22.900000
587.361880 4.000000
588.223750 4.300000
588.238530 3.800000
601.379700 4.000000
601.422910 9.600000
603.428280 4.500000
606.365420 4.000000
606.397160 3.800000
607.402590 4.500000
617.214540 15.700000
617.392640 4.000000
618.380130 4.500000
618.427800 5.200000
619.431820 10.800000
619.487730 3.800000
620.408510 13.000000
620.442020 8.500000
621.465330 3.800000
635.387510 11.000000
635.428410 4.300000
636.440310 10.300000
679.513060 5.200000
711.435240 4.300000
714.256960 5.600000
731.233400 4.500000
749.261540 30.000000
749.295040 9.000000
750.283020 4.700000
751.275510 3.800000
751.441040 5.600000
751.466800 25.300000
752.442630 4.500000
752.484680 8.300000
763.483760 5.800000
765.459050 4.700000
765.496770 11.200000
767.419130 3.800000
768.422850 5.200000
781.454900 5.200000
781.491700 14.600000
782.287110 4.000000
782.488950 13.500000
862.547180 5.200000
897.501770 9.200000
897.530090 12.800000
898.518920 9.600000
913.493470 6.300000
913.537660 7.000000
913.556950 3.800000
914.529970 4.000000
914.559140 5.200000
915.506650 4.500000
920.211300 3.800000
927.522460 10.800000
927.546570 4.000000
928.538450 8.300000
931.542240 5.200000
941.329710 4.000000
943.473330 3.800000
943.550600 10.100000
944.526730 5.400000
944.571780 4.000000
945.588200 6.100000
1028.353640 4.500000
1059.562260 19.100000
1059.600830 8.500000
1059.629760 3.800000
1060.019530 4.500000
1060.608640 4.500000
1060.649540 4.700000
1075.568730 5.600000
1075.596310 3.800000
1077.563230 3.800000
1077.750610 4.500000
1089.568360 9.600000
1089.622440 4.000000
1090.600340 3.800000
1091.567020 9.600000
1131.505250 4.000000
1186.564210 5.800000
1221.560670 15.500000
1221.626950 100.000000
1221.704220 3.800000

NAME: Hesperetin
SCANNUMBER: RIKEN_MONA_192
PRECURSORMZ: 303.086315
PRECURSORTYPE: [M+H]+
IONMODE: Positive
SPECTRUMTYPE: MS2
COLLISIONENERGY: 10 eV
FORMULA: C16H14O6
SMILES: COc1ccc([C@@H]2CC(=O)c3c(O)cc(O)cc3O2)cc1O
INCHI: InChI=1S/C16H14O6/c1-21-13-3-2-8(4-10(13)18)14-7-12(20)16-11(19)5-9(17)6-15(16)22-14/h2-6,14,17-19H,7H2,1H3/t14-/m0/s1
INCHIKEY: AIONOLUJZLIMTK-AWEZNQCLSA-N
RETENTIONTIME: 6.156734
COMMENT: dataset=RIKEN_MONA; source_file=external_data/raw_libraries/RIKEN_MONA.xlsx; source_row=192; RT_sec=369.40404
Num Peaks: 35
89.034350 0.900000
89.041240 0.600000
93.031340 0.500000
97.029270 0.900000
115.503650 0.600000
117.032490 6.300000
118.035000 1.100000
134.036360 2.000000
137.059160 1.500000
145.013610 0.500000
145.029540 8.800000
149.051130 1.300000
149.056980 3.200000
151.039660 0.900000
153.016770 57.600000
153.050720 0.600000
154.021180 4.800000
155.020920 1.300000
160.057590 0.600000
177.052860 45.900000
178.057020 3.400000
179.030200 11.300000
180.030090 1.400000
180.038180 1.100000
193.086070 0.500000
201.060700 1.100000
205.051650 0.500000
210.588350 0.500000
219.062500 1.400000
259.316800 0.500000
262.084990 0.800000
285.078190 1.500000
287.057430 0.600000
303.030550 0.600000
303.084010 100.000000

NAME: Hesperetin-7-O-neohesperidoside
SCANNUMBER: RIKEN_MONA_193
PRECURSORMZ: 611.197047
PRECURSORTYPE: [M+H]+
IONMODE: Positive
SPECTRUMTYPE: MS2
COLLISIONENERGY: 10 eV
FORMULA: C28H34O15
SMILES: COc1ccc([C@@H]2CC(=O)c3c(O)cc(O[C@@H]4O[C@H](CO)[C@@H](O)[C@H](O)[C@H]4O[C@@H]4O[C@@H](C)[C@H](O)[C@@H](O)[C@H]4O)cc3O2)cc1O
INCHI: InChI=1S/C28H34O15/c1-10-21(33)23(35)25(37)27(39-10)43-26-24(36)22(34)19(9-29)42-28(26)40-12-6-14(31)20-15(32)8-17(41-18(20)7-12)11-3-4-16(38-2)13(30)5-11/h3-7,10,17,19,21-31,33-37H,8-9H2,1-2H3/t10-,17-,19+,21-,22+,23+,24-,25+,26+,27-,28+/m0/s1
INCHIKEY: ARGKVCXINMKCAZ-UZRWAPQLSA-N
RETENTIONTIME: 4.589867
COMMENT: dataset=RIKEN_MONA; source_file=external_data/raw_libraries/RIKEN_MONA.xlsx; source_row=193; RT_sec=275.39202
Num Peaks: 99
71.051680 3.000000
85.025810 5.700000
85.029950 2.700000
96.972600 1.600000
129.049610 1.600000
129.058620 2.800000
131.059330 1.700000
142.055970 1.900000
145.023090 2.400000
147.049730 2.000000
149.450810 1.700000
153.016140 23.600000
153.028400 5.000000
153.034680 3.600000
154.018330 1.900000
167.015500 3.500000
177.012440 2.000000
177.059620 11.500000
179.027560 1.800000
179.061830 2.200000
187.880140 3.000000
195.028690 14.300000
195.044510 2.800000
195.061780 1.600000
196.034900 2.500000
204.032780 2.800000
219.028900 11.500000
219.063520 1.600000
220.029390 3.600000
231.028880 5.800000
231.042390 2.500000
244.035250 3.800000
245.040940 6.000000
246.040070 2.600000
246.055830 1.900000
261.043460 4.200000
263.054780 2.400000
263.063230 7.200000
279.049290 1.800000
280.856230 1.900000
283.079470 2.600000
285.209410 1.700000
297.047670 4.200000
297.060940 1.600000
303.036830 3.600000
303.088260 100.000000
303.125700 2.500000
304.072940 6.600000
304.087620 13.100000
305.084010 3.700000
305.095280 1.800000
311.585450 1.700000
315.085910 3.800000
327.085510 7.100000
345.080050 4.600000
345.095670 7.600000
346.095250 2.000000
369.099400 12.800000
369.126980 2.900000
370.087550 3.700000
371.122960 2.300000
395.106960 4.100000
395.126650 1.600000
397.122890 3.500000
411.026150 1.900000
411.089630 1.900000
411.105740 2.500000
411.130100 1.900000
413.113400 1.600000
413.137420 2.500000
414.141660 4.200000
429.076690 1.600000
430.119230 2.100000
431.126890 11.200000
431.170750 2.300000
432.121340 2.500000
433.161440 2.400000
449.118190 6.100000
449.146760 43.100000
449.178960 3.000000
450.153750 2.900000
451.155880 2.900000
455.135890 2.200000
465.131740 13.900000
465.152950 11.800000
466.146150 1.700000
466.160220 3.900000
479.140780 2.600000
489.131350 2.400000
490.131770 2.700000
497.141750 3.000000
507.146940 1.600000
575.172000 3.800000
593.179440 4.200000
594.163450 1.700000
610.181700 2.100000
610.617860 1.700000
611.094180 1.900000
611.199040 23.400000

NAME: Hesperetin-7-O-rutinoside
SCANNUMBER: RIKEN_MONA_194
PRECURSORMZ: 611.197047
PRECURSORTYPE: [M+H]+
IONMODE: Positive
SPECTRUMTYPE: MS2
COLLISIONENERGY: 10 eV
FORMULA: C28H34O15
SMILES: COc1ccc([C@@H]2CC(=O)c3c(O)cc(O[C@@H]4O[C@H](CO[C@@H]5O[C@@H](C)[C@H](O)[C@@H](O)[C@H]5O)[C@@H](O)[C@H](O)[C@H]4O)cc3O2)cc1O
INCHI: InChI=1S/C28H34O15/c1-10-21(32)23(34)25(36)27(40-10)39-9-19-22(33)24(35)26(37)28(43-19)41-12-6-14(30)20-15(31)8-17(42-18(20)7-12)11-3-4-16(38-2)13(29)5-11/h3-7,10,17,19,21-30,32-37H,8-9H2,1-2H3/t10-,17-,19+,21-,22+,23+,24-,25+,26+,27+,28+/m0/s1
INCHIKEY: QUQPHWDTPGMPEX-QJBIFVCTSA-N
RETENTIONTIME: 4.507534
COMMENT: dataset=RIKEN_MONA; source_file=external_data/raw_libraries/RIKEN_MONA.xlsx; source_row=194; RT_sec=270.45204
Num Peaks: 101
55.052750 2.100000
71.048240 0.800000
75.040370 0.800000
85.022740 1.400000
85.028480 4.600000
103.038370 1.500000
109.034900 1.700000
129.054140 5.200000
129.060490 1.500000
130.057460 1.700000
145.048810 0.900000
147.060730 3.500000
147.068020 1.300000
151.077870 1.500000
153.009030 0.800000
153.019470 5.200000
165.015380 1.800000
177.046130 3.900000
177.055590 5.900000
179.022160 1.300000
179.038120 1.300000
189.015240 1.100000
191.038540 1.300000
195.028460 12.900000
196.034590 1.000000
206.783840 0.900000
219.030110 7.000000
221.046170 1.700000
231.036770 1.000000
245.020870 0.800000
245.050930 3.300000
246.050060 0.800000
257.037050 0.900000
261.000490 1.300000
261.039120 0.800000
263.043090 1.000000
263.057650 4.300000
264.078830 1.000000
281.066860 2.600000
302.079280 2.400000
303.085240 100.000000
304.064150 1.300000
304.086820 10.900000
304.098140 7.300000
305.086090 3.400000
306.087950 1.500000
312.336940 0.900000
315.065610 1.900000
315.093810 0.800000
315.103850 0.900000
321.061340 0.800000
327.087250 2.900000
328.099150 1.300000
339.071200 0.900000
345.079350 0.800000
345.094120 1.800000
345.106140 2.200000
346.076930 0.900000
346.103880 3.000000
369.092220 2.300000
369.106410 3.500000
370.095980 1.300000
370.106780 3.100000
371.084630 0.800000
381.106900 1.300000
382.110630 1.300000
395.111510 2.000000
396.105900 1.300000
411.097020 0.900000
413.110780 1.000000
413.134060 5.100000
425.145690 1.000000
430.123260 0.800000
431.136440 5.900000
432.135350 4.000000
432.153230 1.400000
433.159420 1.400000
435.392330 0.800000
447.138310 1.900000
448.127900 1.600000
449.139160 24.800000
449.160890 11.200000
450.127750 1.600000
450.152950 6.100000
451.119450 1.200000
459.130680 0.800000
465.105800 2.100000
465.130490 3.000000
465.150570 9.700000
466.123840 1.900000
466.153500 2.400000
466.183010 1.500000
471.126860 1.300000
489.161680 1.000000
491.148770 1.000000
558.199100 0.800000
594.177430 0.800000
610.523500 0.900000
611.164920 3.500000
611.191710 16.700000
611.215760 7.300000

NAME: Hetisine
SCANNUMBER: RIKEN_MONA_195
PRECURSORMZ: 330.206370
PRECURSORTYPE: [M+H]+
IONMODE: Positive
SPECTRUMTYPE: MS2
COLLISIONENERGY: 10 eV
FORMULA: C20H27NO3
SMILES: C=C1CC23CC4C5C6(C)CC(O)CC57C(C2C(O)C1C(O)C37)N4C6
INCHI: InChI=1S/C20H27NO3/c1-8-3-19-6-10-15-18(2)4-9(22)5-20(15)16(19)14(24)11(8)13(23)12(19)17(20)21(10)7-18/h9-17,22-24H,1,3-7H2,2H3
INCHIKEY: PIWJSAMCEMZIDO-UHFFFAOYSA-N
RETENTIONTIME: 3.067100
COMMENT: dataset=RIKEN_MONA; source_file=external_data/raw_libraries/RIKEN_MONA.xlsx; source_row=195; RT_sec=184.026
Num Peaks: 3
312.196900 1.400000
330.205780 100.000000
330.257200 2.700000

NAME: Hirsuteine
SCANNUMBER: RIKEN_MONA_196
PRECURSORMZ: 367.201619
PRECURSORTYPE: [M+H]+
IONMODE: Positive
SPECTRUMTYPE: MS2
COLLISIONENERGY: 10 eV
FORMULA: C22H26N2O3
SMILES: C=C[C@H]1CN2CCc3c([nH]c4ccccc34)[C@H]2C[C@@H]1/C(=C\OC)C(=O)OC
INCHI: InChI=1S/C22H26N2O3/c1-4-14-12-24-10-9-16-15-7-5-6-8-19(15)23-21(16)20(24)11-17(14)18(13-26-2)22(25)27-3/h4-8,13-14,17,20,23H,1,9-12H2,2-3H3/b18-13+/t14-,17-,20+/m0/s1
INCHIKEY: TZUGIFAYWNNSAO-AZQGJTAVSA-N
RETENTIONTIME: 5.675700
COMMENT: dataset=RIKEN_MONA; source_file=external_data/raw_libraries/RIKEN_MONA.xlsx; source_row=196; RT_sec=340.542
Num Peaks: 44
109.064410 0.900000
126.092500 0.500000
129.056120 0.700000
130.065320 0.900000
144.080150 14.300000
145.083860 2.200000
149.063170 0.500000
155.069760 0.800000
156.079800 1.200000
158.095860 1.700000
167.074680 0.500000
168.080200 0.800000
169.086700 0.900000
170.094920 5.400000
171.097020 0.900000
172.106900 0.600000
178.087800 0.600000
180.079770 0.600000
180.101620 0.700000
182.096710 2.300000
183.099200 0.600000
192.102400 1.400000
199.124240 1.700000
204.103100 0.800000
206.093250 0.600000
208.111180 0.700000
210.115780 1.500000
217.089780 0.500000
222.117970 0.700000
223.118350 0.700000
224.128620 4.200000
225.130570 0.900000
226.085010 0.800000
236.130250 1.700000
238.123120 0.900000
251.154500 1.000000
266.116730 0.900000
298.143650 2.000000
335.177580 2.200000
336.185420 0.600000
339.173100 0.600000
367.139130 0.700000
367.201900 100.000000
367.257690 3.000000

NAME: Hirsutine
SCANNUMBER: RIKEN_MONA_197
PRECURSORMZ: 369.217269
PRECURSORTYPE: [M+H]+
IONMODE: Positive
SPECTRUMTYPE: MS2
COLLISIONENERGY: 10 eV
FORMULA: C22H28N2O3
SMILES: CC[C@H]1CN2CCc3c([nH]c4ccccc34)[C@H]2C[C@@H]1/C(=C\OC)C(=O)OC
INCHI: InChI=1S/C22H28N2O3/c1-4-14-12-24-10-9-16-15-7-5-6-8-19(15)23-21(16)20(24)11-17(14)18(13-26-2)22(25)27-3/h5-8,13-14,17,20,23H,4,9-12H2,1-3H3/b18-13+/t14-,17-,20+/m0/s1
INCHIKEY: NMLUOJBSAYAYEM-AZQGJTAVSA-N
RETENTIONTIME: 5.850083
COMMENT: dataset=RIKEN_MONA; source_file=external_data/raw_libraries/RIKEN_MONA.xlsx; source_row=197; RT_sec=351.00498
Num Peaks: 35
110.095290 1.800000
129.053510 1.500000
130.064500 0.600000
144.080380 14.200000
145.084180 1.300000
158.097790 1.100000
166.081770 0.900000
170.095920 3.400000
171.099620 1.700000
172.108340 0.500000
177.090810 0.600000
178.122120 0.500000
180.080220 0.500000
180.105090 0.600000
182.095370 1.200000
194.115140 0.700000
197.105410 0.600000
199.122300 0.700000
221.110610 0.600000
224.129910 0.600000
226.143600 6.200000
227.148250 0.900000
236.145750 0.600000
238.144760 4.000000
239.147580 0.600000
240.102800 0.500000
251.153640 1.400000
253.164460 1.200000
266.119780 0.600000
298.142790 1.500000
337.189090 2.200000
338.196440 0.600000
352.196500 0.500000
369.216740 100.000000
369.272610 3.000000

NAME: Homatropine
SCANNUMBER: RIKEN_MONA_198
PRECURSORMZ: 276.159420
PRECURSORTYPE: [M+H]+
IONMODE: Positive
SPECTRUMTYPE: MS2
COLLISIONENERGY: 10 eV
FORMULA: C16H21NO3
SMILES: CN1C2CCC1CC(OC(=O)C(O)c1ccccc1)C2
INCHI: InChI=1S/C16H21NO3/c1-17-12-7-8-13(17)10-14(9-12)20-16(19)15(18)11-5-3-2-4-6-11/h2-6,12-15,18H,7-10H2,1H3
INCHIKEY: ZTVIKZXZYLEVOL-UHFFFAOYSA-N
RETENTIONTIME: 3.153800
COMMENT: dataset=RIKEN_MONA; source_file=external_data/raw_libraries/RIKEN_MONA.xlsx; source_row=198; RT_sec=189.228
Num Peaks: 12
93.070050 5.400000
98.098720 0.500000
107.046330 0.500000
124.111870 20.400000
125.110490 0.900000
125.117490 1.000000
142.122060 12.300000
143.119670 0.500000
143.127330 0.900000
276.115810 0.700000
276.159420 100.000000
276.206820 3.100000

NAME: Honokiol
SCANNUMBER: RIKEN_MONA_199
PRECURSORMZ: 267.137956
PRECURSORTYPE: [M+H]+
IONMODE: Positive
SPECTRUMTYPE: MS2
COLLISIONENERGY: 10 eV
FORMULA: C18H18O2
SMILES: C=CCc1ccc(O)c(-c2ccc(O)c(CC=C)c2)c1
INCHI: InChI=1S/C18H18O2/c1-3-5-13-7-9-18(20)16(11-13)14-8-10-17(19)15(12-14)6-4-2/h3-4,7-12,19-20H,1-2,5-6H2
INCHIKEY: FVYXIJYOAGAUQK-UHFFFAOYSA-N
RETENTIONTIME: 8.628800
COMMENT: dataset=RIKEN_MONA; source_file=external_data/raw_libraries/RIKEN_MONA.xlsx; source_row=199; RT_sec=517.728
Num Peaks: 37
96.516550 10.800000
103.060940 6.200000
130.072630 6.900000
146.072780 10.800000
152.068310 6.500000
154.071520 9.200000
155.081250 6.900000
165.068370 6.500000
168.082600 8.200000
169.067230 9.200000
178.079560 7.200000
179.082530 7.800000
181.061040 6.500000
185.088150 5.600000
193.077700 9.500000
193.103910 5.900000
195.076720 5.900000
197.063030 13.400000
197.094710 6.200000
207.001820 7.800000
207.073760 6.900000
209.054960 5.600000
210.072890 8.500000
218.083150 8.200000
226.087710 13.100000
226.099610 8.200000
226.109190 5.600000
227.107240 7.500000
237.096390 8.200000
238.087100 6.500000
238.527540 5.600000
239.107820 82.400000
240.106450 5.900000
241.113620 5.600000
266.132050 100.000000
267.129670 28.800000
267.141540 50.000000

NAME: Hordenine
SCANNUMBER: RIKEN_MONA_200
PRECURSORMZ: 166.122641
PRECURSORTYPE: [M+H]+
IONMODE: Positive
SPECTRUMTYPE: MS2
COLLISIONENERGY: 10 eV
FORMULA: C10H15NO
SMILES: CN(C)CCc1ccc(O)cc1
INCHI: InChI=1S/C10H15NO/c1-11(2)8-7-9-3-5-10(12)6-4-9/h3-6,12H,7-8H2,1-2H3
INCHIKEY: KUBCEEMXQZUPDQ-UHFFFAOYSA-N
RETENTIONTIME: 2.052250
COMMENT: dataset=RIKEN_MONA; source_file=external_data/raw_libraries/RIKEN_MONA.xlsx; source_row=200; RT_sec=123.134999999999
Num Peaks: 19
77.040940 2.800000
78.044420 0.600000
91.053700 0.900000
91.060600 0.800000
92.051730 0.700000
93.070470 5.900000
94.069790 0.900000
94.079300 1.100000
103.050190 2.200000
103.060400 1.000000
104.058820 0.500000
121.042760 0.500000
121.065200 100.000000
122.040650 0.800000
122.066670 8.600000
123.064560 0.800000
166.102100 1.100000
166.122340 78.900000
166.142090 1.200000

NAME: Humantenine
SCANNUMBER: RIKEN_MONA_201
PRECURSORMZ: 355.201619
PRECURSORTYPE: [M+H]+
IONMODE: Positive
SPECTRUMTYPE: MS2
COLLISIONENERGY: 10 eV
FORMULA: C21H26N2O3
SMILES: C/C=C1\CN(C)[C@H]2C[C@@]3(C(=O)N(OC)c4ccccc43)[C@@H]3C[C@H]1[C@@H]2CO3
INCHI: InChI=1S/C21H26N2O3/c1-4-13-11-22(2)18-10-21(19-9-14(13)15(18)12-26-19)16-7-5-6-8-17(16)23(25-3)20(21)24/h4-8,14-15,18-19H,9-12H2,1-3H3/b13-4+/t14-,15+,18+,19+,21+/m1/s1
INCHIKEY: SJKRPUOXUNOPOP-HEXYGZIHSA-N
RETENTIONTIME: 4.632933
COMMENT: dataset=RIKEN_MONA; source_file=external_data/raw_libraries/RIKEN_MONA.xlsx; source_row=201; RT_sec=277.97598
Num Peaks: 49
94.065400 0.700000
108.080120 1.500000
109.090610 0.500000
110.094310 0.600000
120.080320 1.600000
121.088740 1.400000
122.095950 5.700000
123.097630 0.900000
123.103010 1.900000
132.046160 0.700000
134.096270 2.000000
135.104390 0.600000
136.111240 5.800000
137.114380 1.000000
148.109510 0.800000
149.122160 0.500000
150.090710 1.700000
150.096880 0.600000
150.130400 0.700000
152.108540 1.000000
153.114900 0.600000
164.108250 1.000000
165.116940 0.500000
178.121550 4.500000
179.130680 2.200000
192.130660 0.500000
192.140870 1.700000
225.101460 0.700000
281.158360 0.800000
281.168520 1.600000
282.172970 0.500000
282.186710 0.600000
293.163820 1.300000
294.171330 0.800000
295.142640 0.700000
295.178890 0.900000
296.189640 5.600000
297.185640 0.800000
297.201260 0.600000
309.160370 36.600000
310.164280 7.600000
311.167420 1.300000
323.174530 2.300000
324.143710 0.800000
324.183110 36.400000
325.187710 8.500000
326.191830 1.900000
355.200930 100.000000
355.255340 2.600000

NAME: Huperzine A
SCANNUMBER: RIKEN_MONA_202
PRECURSORMZ: 243.149190
PRECURSORTYPE: [M+H]+
IONMODE: Positive
SPECTRUMTYPE: MS2
COLLISIONENERGY: 10 eV
FORMULA: C15H18N2O
SMILES: C/C=C1/[C@@H]2C=C(C)C[C@]1(N)c1ccc(O)nc1C2
INCHI: InChI=1S/C15H18N2O/c1-3-11-10-6-9(2)8-15(11,16)12-4-5-14(18)17-13(12)7-10/h3-6,10H,7-8,16H2,1-2H3,(H,17,18)/b11-3-/t10-,15-/m1/s1
INCHIKEY: ZRJBHWIHUMBLCN-HNWKQCISSA-N
RETENTIONTIME: 2.923533
COMMENT: dataset=RIKEN_MONA; source_file=external_data/raw_libraries/RIKEN_MONA.xlsx; source_row=202; RT_sec=175.41198
Num Peaks: 103
84.083080 0.900000
106.064340 0.600000
108.037350 0.700000
108.047030 0.900000
108.080610 0.600000
110.061520 0.900000
119.053480 0.600000
119.071910 0.600000
119.077380 0.700000
128.065480 0.800000
130.068100 0.600000
134.049440 0.700000
134.065510 1.400000
134.094540 1.300000
135.095780 0.700000
142.081100 0.900000
147.070650 0.600000
151.057600 1.200000
152.057720 0.600000
154.062680 0.600000
154.073180 1.300000
155.083040 0.700000
156.085980 0.600000
165.070470 1.400000
165.401170 0.900000
166.064910 0.700000
166.073840 1.900000
167.079030 0.600000
167.089750 0.600000
168.082610 1.400000
169.074010 0.800000
170.104770 0.800000
173.097310 0.800000
175.089750 0.700000
176.115620 0.700000
177.059600 1.000000
178.065700 3.900000
179.077580 0.600000
179.089460 1.200000
180.064820 0.600000
180.082060 0.800000
180.089610 0.800000
181.087600 0.600000
181.103640 1.100000
182.092040 0.700000
182.105900 0.600000
183.060610 0.600000
183.070470 1.300000
183.102910 3.500000
183.112560 0.600000
184.076430 6.100000
185.070540 0.600000
185.119480 1.100000
185.674160 0.600000
186.088580 0.800000
187.081180 1.300000
187.090640 1.300000
188.021210 0.600000
190.069030 2.700000
191.059620 1.300000
192.075180 0.700000
192.085600 1.600000
193.082870 1.100000
193.102510 0.600000
194.094760 0.700000
195.084110 1.100000
195.965270 0.900000
196.077030 6.600000
197.061080 0.600000
197.078110 2.900000
197.088710 5.900000
198.081310 1.700000
198.091520 2.200000
198.131650 2.300000
199.062350 1.000000
199.085430 0.600000
199.098980 1.100000
205.080760 1.100000
208.121600 0.700000
209.085780 0.600000
209.101330 0.700000
209.113970 2.600000
210.072980 0.800000
210.090850 8.300000
210.115140 0.600000
211.072360 0.600000
211.097350 4.300000
211.104490 2.500000
212.097580 1.800000
224.101810 1.200000
226.122790 32.600000
227.108730 1.200000
227.120900 3.800000
227.133610 2.000000
228.104080 0.600000
228.121670 0.600000
228.899090 0.600000
239.017320 0.600000
239.621980 0.600000
243.078090 0.700000
243.121050 1.400000
243.143810 41.100000
243.152150 100.000000

NAME: Hydrocotarnine
SCANNUMBER: RIKEN_MONA_203
PRECURSORMZ: 222.112470
PRECURSORTYPE: [M+H]+
IONMODE: Positive
SPECTRUMTYPE: MS2
COLLISIONENERGY: 10 eV
FORMULA: C12H15NO3
SMILES: COc1c2c(cc3c1OCO3)CCN(C)C2
INCHI: InChI=1S/C12H15NO3/c1-13-4-3-8-5-10-12(16-7-15-10)11(14-2)9(8)6-13/h5H,3-4,6-7H2,1-2H3
INCHIKEY: XXANNZJIZQTCBP-UHFFFAOYSA-N
RETENTIONTIME: 3.328483
COMMENT: dataset=RIKEN_MONA; source_file=external_data/raw_libraries/RIKEN_MONA.xlsx; source_row=203; RT_sec=199.70898
Num Peaks: 27
91.055620 0.800000
93.068770 0.600000
119.050960 0.700000
121.063910 0.700000
132.086640 0.500000
133.066180 1.300000
134.059860 0.600000
135.081090 0.900000
149.068180 0.600000
160.075360 0.800000
161.060390 0.600000
163.073460 1.200000
164.106930 1.500000
165.055940 2.000000
166.064290 0.600000
179.071110 20.200000
180.076450 1.400000
191.065720 0.700000
191.073900 1.600000
192.102290 0.900000
193.086900 9.200000
194.093830 1.700000
205.088550 0.900000
220.100970 0.600000
222.084990 1.000000
222.113800 100.000000
222.154540 1.600000

NAME: Hydroxygardnutine
SCANNUMBER: RIKEN_MONA_204
PRECURSORMZ: 339.170319
PRECURSORTYPE: [M+H]+
IONMODE: Positive
SPECTRUMTYPE: MS2
COLLISIONENERGY: 10 eV
FORMULA: C20H22N2O3
SMILES: COc1ccc2c3c([nH]c2c1)[C@@H]1C[C@H]2/C(=C\CO)CN1[C@@H]1[C@H]2CO[C@H]31
INCHI: InChI=1S/C20H22N2O3/c1-24-11-2-3-12-15(6-11)21-18-16-7-13-10(4-5-23)8-22(16)19-14(13)9-25-20(19)17(12)18/h2-4,6,13-14,16,19-21,23H,5,7-9H2,1H3/b10-4-/t13-,14-,16-,19+,20+/m0/s1
INCHIKEY: OUONWRIEOZGMSQ-NUUNSNFRSA-N
RETENTIONTIME: 3.602583
COMMENT: dataset=RIKEN_MONA; source_file=external_data/raw_libraries/RIKEN_MONA.xlsx; source_row=204; RT_sec=216.15498
Num Peaks: 69
77.037280 0.500000
96.081150 0.700000
103.053620 1.700000
106.065390 3.700000
110.095860 0.600000
118.064300 0.600000
120.080760 9.000000
124.073130 0.600000
136.075610 5.600000
137.082760 0.500000
138.091190 3.800000
139.094210 0.900000
144.077820 0.500000
147.073010 0.600000
148.071270 0.500000
150.092190 0.500000
158.059050 3.700000
159.063900 0.600000
160.075330 1.600000
161.081760 0.600000
164.111800 0.900000
166.079740 0.500000
172.083910 0.500000
173.084000 6.200000
174.088470 2.400000
186.091350 1.000000
187.095810 0.500000
188.110140 0.800000
202.085280 3.100000
203.095750 0.700000
209.080760 0.900000
210.087200 1.000000
212.095610 0.600000
213.106260 0.700000
224.106220 3.200000
235.098280 0.900000
236.109240 1.300000
238.116130 0.700000
248.097700 0.700000
252.095260 1.100000
252.111180 0.800000
254.125550 0.700000
261.113010 0.700000
262.109890 0.500000
263.113830 1.100000
264.140660 0.600000
268.126070 0.500000
276.139100 0.600000
277.131650 1.000000
278.104100 0.600000
278.142700 1.500000
279.117680 0.700000
280.129430 0.500000
293.131620 1.400000
294.122440 0.600000
294.138210 2.300000
295.137480 0.600000
309.132290 0.700000
309.159450 28.300000
310.155980 3.400000
310.166600 3.800000
311.160710 1.100000
321.153350 1.200000
321.179600 0.600000
322.135960 0.500000
322.146700 1.300000
339.126980 0.700000
339.168490 100.000000
339.223020 1.900000

NAME: Hyoscyamine
SCANNUMBER: RIKEN_MONA_205
PRECURSORMZ: 290.175070
PRECURSORTYPE: [M+H]+
IONMODE: Positive
SPECTRUMTYPE: MS2
COLLISIONENERGY: 10 eV
FORMULA: C17H23NO3
SMILES: CN1[C@H]2CC[C@@H]1CC(OC(=O)[C@H](CO)c1ccccc1)C2
INCHI: InChI=1S/C17H23NO3/c1-18-13-7-8-14(18)10-15(9-13)21-17(20)16(11-19)12-5-3-2-4-6-12/h2-6,13-16,19H,7-11H2,1H3/t13-,14+,15?,16-/m1/s1
INCHIKEY: RKUNBYITZUJHSG-VFSICIBPSA-N
RETENTIONTIME: 3.589617
COMMENT: dataset=RIKEN_MONA; source_file=external_data/raw_libraries/RIKEN_MONA.xlsx; source_row=205; RT_sec=215.37702
Num Peaks: 14
77.041060 0.500000
91.051990 0.600000
91.056050 1.000000
93.069950 6.300000
94.074680 0.600000
121.063100 0.500000
124.112630 25.300000
125.115490 3.500000
142.122010 1.000000
260.162020 0.700000
290.176390 100.000000
290.224950 3.700000
290.269530 0.800000
290.376620 1.700000

NAME: Hypaconitine
SCANNUMBER: RIKEN_MONA_206
PRECURSORMZ: 616.311623
PRECURSORTYPE: [M+H]+
IONMODE: Positive
SPECTRUMTYPE: MS2
COLLISIONENERGY: 10 eV
FORMULA: C33H45NO10
SMILES: COC[C@@]12CC[C@H](OC)[C@]34[C@H]([C@H]([C@H](OC)[C@H]13)[C@@]1(OC(C)=O)[C@@H](O)[C@H](OC)[C@@]3(O)C[C@@H]4[C@@H]1[C@H]3OC(=O)c1ccccc1)N(C)C2
INCHI: InChI=1S/C33H45NO10/c1-17(35)44-33-21-19(14-31(38,28(42-6)26(33)36)27(21)43-29(37)18-10-8-7-9-11-18)32-20(40-4)12-13-30(16-39-3)15-34(2)25(32)22(33)23(41-5)24(30)32/h7-11,19-28,36,38H,12-16H2,1-6H3/t19-,20+,21-,22+,23+,24-,25+,26+,27-,28+,30+,31-,32+,33-/m1/s1
INCHIKEY: FIDOCHXHMJHKRW-FRKYWMJVSA-N
RETENTIONTIME: 5.970783
COMMENT: dataset=RIKEN_MONA; source_file=external_data/raw_libraries/RIKEN_MONA.xlsx; source_row=206; RT_sec=358.24698
Num Peaks: 18
105.035160 0.800000
338.177520 4.000000
339.185060 0.900000
342.212040 0.600000
464.242160 1.000000
492.226010 0.700000
496.253940 0.600000
496.274690 1.400000
524.264950 6.100000
525.261660 1.600000
525.284610 1.000000
556.293030 11.400000
557.295410 4.600000
558.304690 0.900000
584.287350 1.400000
616.254520 1.000000
616.314210 100.000000
616.406920 0.600000

NAME: Icariin
SCANNUMBER: RIKEN_MONA_207
PRECURSORMZ: 677.243997
PRECURSORTYPE: [M+H]+
IONMODE: Positive
SPECTRUMTYPE: MS2
COLLISIONENERGY: 10 eV
FORMULA: C33H40O15
SMILES: COc1ccc(-c2oc3c(CC=C(C)C)c(OC4OC(CO)C(O)C(O)C4O)cc(O)c3c(=O)c2OC2OC(C)C(O)C(O)C2O)cc1
INCHI: InChI=1S/C33H40O15/c1-13(2)5-10-17-19(45-33-28(42)26(40)23(37)20(12-34)46-33)11-18(35)21-24(38)31(48-32-27(41)25(39)22(36)14(3)44-32)29(47-30(17)21)15-6-8-16(43-4)9-7-15/h5-9,11,14,20,22-23,25-28,32-37,39-42H,10,12H2,1-4H3
INCHIKEY: TZJALUIVHRYQQB-UHFFFAOYSA-N
RETENTIONTIME: 5.426533
COMMENT: dataset=RIKEN_MONA; source_file=external_data/raw_libraries/RIKEN_MONA.xlsx; source_row=207; RT_sec=325.59198
Num Peaks: 18
85.030000 1.900000
129.053570 2.400000
129.060170 0.600000
313.060390 4.400000
313.072200 16.000000
314.069030 2.700000
314.084750 1.100000
315.071990 0.500000
369.132810 100.000000
369.188660 0.900000
370.137300 20.200000
371.139620 2.700000
515.197630 1.000000
531.186400 70.800000
532.190730 22.000000
533.193120 3.800000
677.178410 0.500000
677.243290 54.100000

NAME: Indole-3-acetyl-L-alanine
SCANNUMBER: RIKEN_MONA_208
PRECURSORMZ: 247.107719
PRECURSORTYPE: [M+H]+
IONMODE: Positive
SPECTRUMTYPE: MS2
COLLISIONENERGY: 10 eV
FORMULA: C13H14N2O3
SMILES: CC(N=C(O)Cc1c[nH]c2ccccc12)C(=O)O
INCHI: InChI=1S/C13H14N2O3/c1-8(13(17)18)15-12(16)6-9-7-14-11-5-3-2-4-10(9)11/h2-5,7-8,14H,6H2,1H3,(H,15,16)(H,17,18)
INCHIKEY: FBDCJLXTUCMFLF-UHFFFAOYSA-N
RETENTIONTIME: 4.545784
COMMENT: dataset=RIKEN_MONA; source_file=external_data/raw_libraries/RIKEN_MONA.xlsx; source_row=208; RT_sec=272.74704
Num Peaks: 12
90.054890 11.900000
91.058670 0.500000
103.055490 1.000000
130.041840 0.700000
130.064930 100.000000
131.068130 12.600000
158.059980 1.900000
201.095050 1.200000
201.104540 3.300000
229.090330 0.800000
229.100510 0.500000
247.107280 20.900000

NAME: Indole-3-acetyl-L-glutamic acid
SCANNUMBER: RIKEN_MONA_209
PRECURSORMZ: 305.113198
PRECURSORTYPE: [M+H]+
IONMODE: Positive
SPECTRUMTYPE: MS2
COLLISIONENERGY: 10 eV
FORMULA: C15H16N2O5
SMILES: O=C(O)CC[C@H](N=C(O)Cc1c[nH]c2ccccc12)C(=O)O
INCHI: InChI=1S/C15H16N2O5/c18-13(17-12(15(21)22)5-6-14(19)20)7-9-8-16-11-4-2-1-3-10(9)11/h1-4,8,12,16H,5-7H2,(H,17,18)(H,19,20)(H,21,22)/t12-/m0/s1
INCHIKEY: YRKLGWOHYXIKSF-LBPRGKRZSA-N
RETENTIONTIME: 4.116467
COMMENT: dataset=RIKEN_MONA; source_file=external_data/raw_libraries/RIKEN_MONA.xlsx; source_row=209; RT_sec=246.98802
Num Peaks: 17
84.045270 2.600000
102.053560 1.600000
130.064290 100.000000
131.052810 0.600000
131.069430 9.700000
148.060500 20.200000
158.059100 5.000000
196.074720 0.600000
213.105300 0.800000
214.081500 0.600000
241.097780 1.500000
259.106020 4.900000
260.117830 0.600000
287.102510 1.800000
287.112980 1.300000
288.105680 0.600000
305.112580 29.700000

NAME: Indole-3-acetyl-L-isoleucine
SCANNUMBER: RIKEN_MONA_210
PRECURSORMZ: 289.154669
PRECURSORTYPE: [M+H]+
IONMODE: Positive
SPECTRUMTYPE: MS2
COLLISIONENERGY: 10 eV
FORMULA: C16H20N2O3
SMILES: CC[C@H](C)[C@H](N=C(O)Cc1c[nH]c2ccccc12)C(=O)O
INCHI: InChI=1S/C16H20N2O3/c1-3-10(2)15(16(20)21)18-14(19)8-11-9-17-13-7-5-4-6-12(11)13/h4-7,9-10,15,17H,3,8H2,1-2H3,(H,18,19)(H,20,21)/t10-,15-/m0/s1
INCHIKEY: WPTUQMUCTTVOFW-BONVTDFDSA-N
RETENTIONTIME: 6.140750
COMMENT: dataset=RIKEN_MONA; source_file=external_data/raw_libraries/RIKEN_MONA.xlsx; source_row=210; RT_sec=368.445
Num Peaks: 19
86.084970 0.900000
86.096370 22.900000
87.097110 0.500000
87.102710 0.700000
103.053970 0.700000
130.064740 100.000000
131.057500 1.200000
131.067730 8.800000
132.101330 22.100000
133.103900 0.700000
133.109160 0.600000
175.090700 0.500000
243.148610 54.400000
244.152330 9.500000
245.154950 0.500000
271.144870 5.900000
272.149290 0.900000
288.142060 0.800000
289.154630 42.500000

NAME: Indole-3-acetyl-L-leucine
SCANNUMBER: RIKEN_MONA_211
PRECURSORMZ: 289.154669
PRECURSORTYPE: [M+H]+
IONMODE: Positive
SPECTRUMTYPE: MS2
COLLISIONENERGY: 10 eV
FORMULA: C16H20N2O3
SMILES: CC(C)CC(N=C(O)Cc1c[nH]c2ccccc12)C(=O)O
INCHI: InChI=1S/C16H20N2O3/c1-10(2)7-14(16(20)21)18-15(19)8-11-9-17-13-6-4-3-5-12(11)13/h3-6,9-10,14,17H,7-8H2,1-2H3,(H,18,19)(H,20,21)
INCHIKEY: HCZNPUHZYPPINM-UHFFFAOYSA-N
RETENTIONTIME: 6.195467
COMMENT: dataset=RIKEN_MONA; source_file=external_data/raw_libraries/RIKEN_MONA.xlsx; source_row=211; RT_sec=371.72802
Num Peaks: 15
86.085180 0.600000
86.095990 15.600000
103.055080 1.600000
128.047810 0.800000
130.064900 100.000000
131.068820 12.700000
132.101360 24.900000
133.106890 2.200000
134.104750 0.700000
243.149690 26.500000
244.154210 4.900000
245.157930 0.600000
271.146150 5.200000
272.143770 0.800000
289.154540 40.100000

NAME: Indole-3-acetyl-L-phenylalanine
SCANNUMBER: RIKEN_MONA_212
PRECURSORMZ: 323.139019
PRECURSORTYPE: [M+H]+
IONMODE: Positive
SPECTRUMTYPE: MS2
COLLISIONENERGY: 10 eV
FORMULA: C19H18N2O3
SMILES: O=C(O)[C@H](Cc1ccccc1)N=C(O)Cc1c[nH]c2ccccc12
INCHI: InChI=1S/C19H18N2O3/c22-18(11-14-12-20-16-9-5-4-8-15(14)16)21-17(19(23)24)10-13-6-2-1-3-7-13/h1-9,12,17,20H,10-11H2,(H,21,22)(H,23,24)/t17-/m0/s1
INCHIKEY: BUGQHORRADGONS-KRWDZBQOSA-N
RETENTIONTIME: 6.339800
COMMENT: dataset=RIKEN_MONA; source_file=external_data/raw_libraries/RIKEN_MONA.xlsx; source_row=212; RT_sec=380.388
Num Peaks: 15
103.052650 1.100000
120.065350 0.500000
120.080380 32.600000
121.082940 3.000000
130.064440 100.000000
131.050350 0.700000
131.067430 9.700000
149.061340 1.000000
166.085450 37.400000
167.083820 1.100000
167.090230 3.300000
277.132320 18.400000
278.134800 3.800000
305.128880 1.800000
323.138240 38.600000

NAME: Indole-3-acetyl-L-tryptophan
SCANNUMBER: RIKEN_MONA_213
PRECURSORMZ: 362.149918
PRECURSORTYPE: [M+H]+
IONMODE: Positive
SPECTRUMTYPE: MS2
COLLISIONENERGY: 10 eV
FORMULA: C21H19N3O3
SMILES: O=C(O)C(Cc1c[nH]c2ccccc12)N=C(O)Cc1c[nH]c2ccccc12
INCHI: InChI=1S/C21H19N3O3/c25-20(10-14-12-23-18-8-4-2-6-16(14)18)24-19(21(26)27)9-13-11-22-17-7-3-1-5-15(13)17/h1-8,11-12,19,22-23H,9-10H2,(H,24,25)(H,26,27)
INCHIKEY: FOSPCYZZRVNHJS-UHFFFAOYSA-N
RETENTIONTIME: 6.191566
COMMENT: dataset=RIKEN_MONA; source_file=external_data/raw_libraries/RIKEN_MONA.xlsx; source_row=213; RT_sec=371.49396
Num Peaks: 48
103.055610 0.500000
118.064640 3.600000
130.037510 0.700000
130.064380 100.000000
131.060290 1.500000
131.068910 9.700000
132.078950 4.600000
144.076890 2.100000
146.060230 16.500000
157.075260 4.600000
158.058300 3.100000
159.091050 11.300000
160.090990 1.300000
170.062670 5.200000
175.086180 0.500000
185.050750 0.600000
185.070590 27.500000
186.058930 0.500000
186.073910 5.900000
187.076810 0.700000
187.089400 3.100000
188.070180 49.200000
189.072250 4.600000
189.081020 1.800000
190.081390 0.500000
205.097050 30.000000
206.094770 1.800000
206.101850 3.800000
207.097960 0.500000
217.103270 0.800000
245.095350 0.800000
256.099370 0.700000
268.070770 0.600000
271.121060 1.900000
271.131200 1.900000
272.120060 1.300000
277.278750 0.500000
289.129430 0.600000
316.118930 0.500000
316.143680 6.000000
316.160000 1.300000
317.132570 0.500000
317.148410 0.700000
317.161350 0.700000
344.140720 10.700000
345.123900 1.100000
345.146180 2.300000
362.150390 70.500000

NAME: Indole-3-acetyl-L-valine
SCANNUMBER: RIKEN_MONA_214
PRECURSORMZ: 275.139019
PRECURSORTYPE: [M+H]+
IONMODE: Positive
SPECTRUMTYPE: MS2
COLLISIONENERGY: 10 eV
FORMULA: C15H18N2O3
SMILES: CC(C)[C@H](N=C(O)Cc1c[nH]c2ccccc12)C(=O)O
INCHI: InChI=1S/C15H18N2O3/c1-9(2)14(15(19)20)17-13(18)7-10-8-16-12-6-4-3-5-11(10)12/h3-6,8-9,14,16H,7H2,1-2H3,(H,17,18)(H,19,20)/t14-/m0/s1
INCHIKEY: AZEGJHGXTSUPPG-AWEZNQCLSA-N
RETENTIONTIME: 5.607900
COMMENT: dataset=RIKEN_MONA; source_file=external_data/raw_libraries/RIKEN_MONA.xlsx; source_row=214; RT_sec=336.474
Num Peaks: 15
72.081420 8.300000
103.053170 0.600000
118.085620 17.600000
119.087200 1.100000
119.092130 0.500000
130.064620 100.000000
131.068860 11.100000
158.060880 0.600000
229.133210 37.700000
230.138170 7.300000
231.140990 0.700000
257.129640 5.200000
258.133940 0.500000
274.131930 0.600000
275.141540 34.700000

NAME: Iso-gamma-fagarine
SCANNUMBER: RIKEN_MONA_215
PRECURSORMZ: 230.081170
PRECURSORTYPE: [M+H]+
IONMODE: Positive
SPECTRUMTYPE: MS2
COLLISIONENERGY: 10 eV
FORMULA: C13H11NO3
SMILES: COc1cccc2c(=O)c3ccoc3n(C)c12
INCHI: InChI=1S/C13H11NO3/c1-14-11-8(4-3-5-10(11)16-2)12(15)9-6-7-17-13(9)14/h3-7H,1-2H3
INCHIKEY: VNBUMBNLPGLBML-UHFFFAOYSA-N
RETENTIONTIME: 5.589417
COMMENT: dataset=RIKEN_MONA; source_file=external_data/raw_libraries/RIKEN_MONA.xlsx; source_row=215; RT_sec=335.36502
Num Peaks: 27
128.049580 1.100000
130.061890 1.100000
130.069350 1.000000
131.047810 0.900000
131.071580 0.900000
158.060380 3.300000
159.043060 0.800000
159.066070 2.000000
170.055620 0.800000
170.064640 0.600000
172.040180 3.400000
185.045090 1.400000
185.054200 0.500000
186.054580 8.300000
187.062040 8.700000
188.068180 1.300000
198.058300 1.200000
212.037060 0.900000
214.049760 6.100000
215.058210 41.400000
215.100300 1.200000
216.060550 5.500000
217.062480 0.500000
230.082430 100.000000
230.125320 3.900000
230.164580 0.600000
230.260860 1.800000

NAME: Isocorydine
SCANNUMBER: RIKEN_MONA_216
PRECURSORMZ: 342.169985
PRECURSORTYPE: [M+H]+
IONMODE: Positive
SPECTRUMTYPE: MS2
COLLISIONENERGY: 10 eV
FORMULA: C20H23NO4
SMILES: COc1ccc2c(c1O)-c1c(OC)c(OC)cc3c1[C@H](C2)N(C)CC3
INCHI: InChI=1S/C20H23NO4/c1-21-8-7-12-10-15(24-3)20(25-4)18-16(12)13(21)9-11-5-6-14(23-2)19(22)17(11)18/h5-6,10,13,22H,7-9H2,1-4H3/t13-/m0/s1
INCHIKEY: QELDJEKNFOQJOY-ZDUSSCGKSA-N
RETENTIONTIME: 3.916000
COMMENT: dataset=RIKEN_MONA; source_file=external_data/raw_libraries/RIKEN_MONA.xlsx; source_row=216; RT_sec=234.96
Num Peaks: 67
165.071730 1.100000
178.077440 1.200000
179.087980 1.000000
180.090160 0.600000
190.080540 1.200000
191.087300 4.500000
192.093770 0.700000
193.062770 0.800000
194.070010 1.500000
202.077270 1.000000
203.086930 1.100000
205.064330 0.700000
206.073010 2.400000
207.078060 1.600000
207.086350 1.100000
208.084670 1.600000
208.095860 1.300000
209.098250 0.600000
218.075440 0.700000
219.082520 4.000000
220.088060 1.500000
221.059840 1.500000
221.091490 0.900000
222.067520 0.900000
223.113370 1.100000
224.088840 0.800000
231.076810 0.700000
233.057250 0.900000
233.094360 0.600000
234.071240 1.200000
235.071290 2.300000
235.081130 3.200000
236.084900 14.400000
237.090410 6.200000
238.059980 1.600000
238.071270 1.600000
247.076280 8.700000
248.085130 18.000000
249.054260 0.700000
249.073290 0.600000
249.090180 4.400000
250.097240 1.200000
251.109280 6.600000
252.119670 0.900000
253.085340 1.800000
262.099000 0.700000
263.068940 1.600000
263.079740 1.700000
264.079930 18.200000
265.088960 14.800000
266.094540 3.100000
267.104680 2.300000
268.104100 0.800000
278.099300 0.600000
279.103610 41.900000
280.109740 19.200000
281.079710 5.200000
281.091800 2.900000
281.117890 2.200000
282.086400 1.800000
296.106110 11.100000
297.110140 2.500000
299.128750 0.600000
311.129150 29.300000
312.133120 6.800000
342.171780 100.000000
342.224980 3.100000

NAME: Isoformosanine
SCANNUMBER: RIKEN_MONA_217
PRECURSORMZ: 369.180884
PRECURSORTYPE: [M+H]+
IONMODE: Positive
SPECTRUMTYPE: MS2
COLLISIONENERGY: 10 eV
FORMULA: C21H24N2O4
SMILES: COC(=O)C1=CO[C@H](C)[C@H]2CN3CC[C@@]4(C(O)=Nc5ccccc54)[C@@H]3C[C@H]12
INCHI: InChI=1S/C21H24N2O4/c1-12-14-10-23-8-7-21(16-5-3-4-6-17(16)22-20(21)25)18(23)9-13(14)15(11-27-12)19(24)26-2/h3-6,11-14,18H,7-10H2,1-2H3,(H,22,25)/t12-,13+,14-,18+,21+/m1/s1
INCHIKEY: JMIAZDVHNCCPDM-DQDWJNSRSA-N
RETENTIONTIME: 4.424000
COMMENT: dataset=RIKEN_MONA; source_file=external_data/raw_libraries/RIKEN_MONA.xlsx; source_row=217; RT_sec=265.44
Num Peaks: 25
118.063090 0.800000
124.039440 1.200000
132.045780 1.400000
132.079330 2.800000
142.064500 2.500000
150.092220 0.500000
158.059560 1.400000
158.065400 0.500000
160.075590 17.400000
161.078230 2.400000
178.086350 2.200000
187.085750 5.300000
201.101850 2.700000
210.112150 0.600000
241.132950 1.200000
265.098270 0.600000
281.090520 1.500000
282.096560 0.600000
283.108490 0.900000
309.159730 1.700000
337.154820 4.200000
338.160610 1.400000
369.119290 0.600000
369.182430 100.000000
369.238430 3.000000

NAME: Isofraxidin
SCANNUMBER: RIKEN_MONA_218
PRECURSORMZ: 223.060100
PRECURSORTYPE: [M+H]+
IONMODE: Positive
SPECTRUMTYPE: MS2
COLLISIONENERGY: 10 eV
FORMULA: C11H10O5
SMILES: COc1cc2ccc(=O)oc2c(OC)c1O
INCHI: InChI=1S/C11H10O5/c1-14-7-5-6-3-4-8(12)16-10(6)11(15-2)9(7)13/h3-5,13H,1-2H3
INCHIKEY: HOEVRHHMDJKUMZ-UHFFFAOYSA-N
RETENTIONTIME: 4.276100
COMMENT: dataset=RIKEN_MONA; source_file=external_data/raw_libraries/RIKEN_MONA.xlsx; source_row=218; RT_sec=256.566
Num Peaks: 26
78.048440 2.100000
106.043950 1.500000
107.050510 3.900000
117.032000 0.900000
133.027240 2.400000
134.034620 3.800000
135.042450 1.700000
135.049770 1.000000
161.023710 1.000000
162.031050 12.200000
163.038180 6.100000
164.043170 1.000000
167.069400 0.500000
178.029750 0.900000
179.032090 3.400000
180.044270 0.700000
190.026670 11.100000
191.019740 0.600000
191.031980 1.200000
194.061550 0.500000
195.063370 1.100000
207.031080 4.300000
208.036060 7.900000
222.052760 2.300000
223.060870 100.000000
223.103870 1.900000

NAME: Isohernandezine
SCANNUMBER: RIKEN_MONA_219
PRECURSORMZ: 653.322128
PRECURSORTYPE: [M+H]+
IONMODE: Positive
SPECTRUMTYPE: MS2
COLLISIONENERGY: 10 eV
FORMULA: C39H44N2O7
SMILES: COc1ccc2cc1Oc1ccc(cc1)C[C@@H]1c3cc(c(OC)cc3CCN1C)Oc1c(OC)c(OC)c(OC)c3c1[C@H](C2)N(C)CC3
INCHI: InChI=1S/C39H44N2O7/c1-40-16-14-25-21-32(43-4)34-22-28(25)29(40)18-23-8-11-26(12-9-23)47-33-20-24(10-13-31(33)42-3)19-30-35-27(15-17-41(30)2)36(44-5)38(45-6)39(46-7)37(35)48-34/h8-13,20-22,29-30H,14-19H2,1-7H3/t29-,30+/m1/s1
INCHIKEY: FUZMQNZACIFDBL-IHLOFXLRSA-N
RETENTIONTIME: 4.412416
COMMENT: dataset=RIKEN_MONA; source_file=external_data/raw_libraries/RIKEN_MONA.xlsx; source_row=219; RT_sec=264.74496
Num Peaks: 25
162.092410 0.900000
174.090260 0.900000
178.088030 0.500000
191.095840 5.600000
192.098680 3.500000
193.101040 0.600000
204.104230 1.000000
281.136440 0.600000
305.144840 0.800000
327.168210 0.800000
327.666050 1.400000
328.172940 0.900000
411.179960 1.200000
411.192350 1.800000
411.207520 2.100000
412.196810 1.100000
432.216310 0.800000
607.266170 0.500000
622.281980 4.400000
623.287840 2.400000
624.302370 0.700000
653.195370 0.500000
653.229310 1.400000
653.257750 1.900000
653.324100 100.000000

NAME: Isomajdine
SCANNUMBER: RIKEN_MONA_220
PRECURSORMZ: 429.202013
PRECURSORTYPE: [M+H]+
IONMODE: Positive
SPECTRUMTYPE: MS2
COLLISIONENERGY: 10 eV
FORMULA: C23H28N2O6
SMILES: COC(=O)C1=CO[C@@H](C)[C@@H]2CN3CC[C@]4(C(O)=Nc5c4ccc(OC)c5OC)[C@@H]3C[C@H]12
INCHI: InChI=1S/C23H28N2O6/c1-12-14-10-25-8-7-23(18(25)9-13(14)15(11-31-12)21(26)30-4)16-5-6-17(28-2)20(29-3)19(16)24-22(23)27/h5-6,11-14,18H,7-10H2,1-4H3,(H,24,27)/t12-,13-,14-,18-,23+/m0/s1
INCHIKEY: TTZWEOINXHJHCY-UHJVZONPSA-N
RETENTIONTIME: 4.478650
COMMENT: dataset=RIKEN_MONA; source_file=external_data/raw_libraries/RIKEN_MONA.xlsx; source_row=220; RT_sec=268.719
Num Peaks: 35
108.083180 0.500000
160.077120 0.800000
161.085770 0.600000
178.086910 1.700000
187.062670 1.600000
188.071380 1.000000
189.078660 4.600000
190.085880 0.900000
192.066280 1.100000
192.100590 0.800000
205.074570 1.200000
210.115100 0.800000
218.081120 2.900000
220.097270 14.900000
221.102130 2.100000
230.104780 1.400000
261.124240 3.500000
262.126650 0.600000
273.125340 3.700000
274.126590 0.500000
297.124020 0.500000
299.138090 1.500000
301.155730 0.500000
325.116640 1.500000
325.128110 1.100000
327.171570 1.000000
353.151000 1.100000
369.177920 1.200000
397.175450 22.000000
398.179260 5.500000
399.178860 0.900000
429.133850 0.700000
429.201930 100.000000
429.262150 3.200000
429.315490 0.600000

NAME: Isoreserpin
SCANNUMBER: RIKEN_MONA_221
PRECURSORMZ: 609.280657
PRECURSORTYPE: [M+H]+
IONMODE: Positive
SPECTRUMTYPE: MS2
COLLISIONENERGY: 10 eV
FORMULA: C33H40N2O9
SMILES: COC(=O)C1C2CC3c4[nH]c5cc(OC)ccc5c4CCN3CC2CC(OC(=O)c2cc(OC)c(OC)c(OC)c2)C1OC
INCHI: InChI=1S/C33H40N2O9/c1-38-19-7-8-20-21-9-10-35-16-18-13-27(44-32(36)17-11-25(39-2)30(41-4)26(12-17)40-3)31(42-5)28(33(37)43-6)22(18)15-24(35)29(21)34-23(20)14-19/h7-8,11-12,14,18,22,24,27-28,31,34H,9-10,13,15-16H2,1-6H3
INCHIKEY: QEVHRUUCFGRFIF-UHFFFAOYSA-N
RETENTIONTIME: 6.116950
COMMENT: dataset=RIKEN_MONA; source_file=external_data/raw_libraries/RIKEN_MONA.xlsx; source_row=221; RT_sec=367.017
Num Peaks: 20
174.091690 9.500000
175.092220 1.200000
192.100970 1.600000
195.065980 17.200000
196.069270 1.800000
224.128920 1.600000
236.128770 3.300000
237.133260 0.500000
365.183140 1.500000
368.149140 0.500000
397.211820 9.200000
398.214050 2.600000
436.193850 1.200000
448.194790 8.500000
449.193660 1.900000
449.208770 1.000000
609.179200 0.500000
609.208130 0.600000
609.280820 100.000000
609.353760 1.900000

NAME: Isorhynchophylline
SCANNUMBER: RIKEN_MONA_222
PRECURSORMZ: 385.212184
PRECURSORTYPE: [M+H]+
IONMODE: Positive
SPECTRUMTYPE: MS2
COLLISIONENERGY: 10 eV
FORMULA: C22H28N2O4
SMILES: CC[C@H]1CN2CC[C@@]3(C(O)=Nc4ccccc43)[C@@H]2C[C@@H]1/C(=C\OC)C(=O)OC
INCHI: InChI=1S/C22H28N2O4/c1-4-14-12-24-10-9-22(17-7-5-6-8-18(17)23-21(22)26)19(24)11-15(14)16(13-27-2)20(25)28-3/h5-8,13-15,19H,4,9-12H2,1-3H3,(H,23,26)/b16-13+/t14-,15-,19-,22-/m0/s1
INCHIKEY: DAXYUDFNWXHGBE-VKCGGMIFSA-N
RETENTIONTIME: 4.634133
COMMENT: dataset=RIKEN_MONA; source_file=external_data/raw_libraries/RIKEN_MONA.xlsx; source_row=222; RT_sec=278.04798
Num Peaks: 24
108.080240 0.900000
132.081510 1.200000
142.064740 0.800000
158.057790 1.200000
160.075610 7.600000
161.082110 0.700000
187.086520 4.500000
188.088610 0.700000
213.097030 0.600000
215.119340 1.100000
226.143800 0.600000
241.132840 15.900000
242.136260 2.800000
265.130680 0.600000
267.148830 3.800000
268.149110 0.800000
269.165800 2.000000
321.162260 1.700000
353.186400 14.300000
354.187710 3.400000
355.192810 0.500000
385.146850 0.700000
385.212070 100.000000
385.269290 3.000000

NAME: Isotalatizidine
SCANNUMBER: RIKEN_MONA_223
PRECURSORMZ: 408.274450
PRECURSORTYPE: [M+H]+
IONMODE: Positive
SPECTRUMTYPE: MS2
COLLISIONENERGY: 10 eV
FORMULA: C23H37NO5
SMILES: CCN1C[C@@]2(COC)CC[C@H](O)[C@@]34C5C[C@H]6C(O)C5[C@](O)(C[C@@H]6OC)C(C[C@@H]32)C14
INCHI: InChI=1S/C23H37NO5/c1-4-24-10-21(11-28-2)6-5-17(25)23-13-7-12-15(29-3)9-22(27,18(13)19(12)26)14(20(23)24)8-16(21)23/h12-20,25-27H,4-11H2,1-3H3/t12-,13?,14?,15+,16-,17+,18?,19?,20?,21-,22+,23-/m1/s1
INCHIKEY: RBSZCNOWHDHRFZ-NKNRFIKZSA-N
RETENTIONTIME: 2.906267
COMMENT: dataset=RIKEN_MONA; source_file=external_data/raw_libraries/RIKEN_MONA.xlsx; source_row=223; RT_sec=174.37602
Num Peaks: 9
98.097750 1.000000
108.082590 0.500000
358.240020 1.800000
372.256960 1.000000
390.264400 13.200000
391.264770 3.700000
408.219970 0.600000
408.273900 100.000000
408.332520 2.700000

NAME: Isovitexin(4)
SCANNUMBER: RIKEN_MONA_224
PRECURSORMZ: 433.112923
PRECURSORTYPE: [M+H]+
IONMODE: Positive
SPECTRUMTYPE: MS2
COLLISIONENERGY: 10 eV
FORMULA: C21H20O10
SMILES: O=c1cc(-c2ccc(O)cc2)oc2cc(O)c([C@@H]3O[C@H](CO)[C@@H](O)[C@H](O)[C@H]3O)c(O)c12
INCHI: InChI=1S/C21H20O10/c22-7-14-17(26)19(28)20(29)21(31-14)16-11(25)6-13-15(18(16)27)10(24)5-12(30-13)8-1-3-9(23)4-2-8/h1-6,14,17,19-23,25-29H,7H2/t14-,17-,19+,20-,21+/m1/s1
INCHIKEY: MYXNWGACZJSMBT-VJXVFPJBSA-N
RETENTIONTIME: 3.947800
COMMENT: dataset=RIKEN_MONA; source_file=external_data/raw_libraries/RIKEN_MONA.xlsx; source_row=224; RT_sec=236.868
Num Peaks: 144
91.043670 0.600000
103.036250 0.600000
103.043550 0.500000
107.035580 0.800000
109.031430 0.900000
119.052300 2.500000
121.029400 0.900000
145.028080 0.600000
146.032680 0.600000
149.025860 1.300000
150.028240 0.500000
163.031420 0.600000
163.044820 1.000000
165.023240 3.000000
165.238420 0.500000
166.021120 0.600000
170.522610 0.500000
173.028320 0.700000
174.022490 0.500000
177.019100 2.500000
178.978970 0.900000
181.869490 0.800000
183.356550 0.800000
187.037600 1.600000
187.047010 0.600000
195.031740 1.400000
203.071910 0.500000
205.051390 0.800000
214.928500 0.700000
215.032710 0.900000
220.659870 0.800000
228.073300 0.800000
234.356020 0.700000
239.067900 1.000000
243.033490 0.800000
252.335510 1.100000
255.020450 0.600000
258.651430 0.500000
267.051670 1.300000
267.065190 2.100000
269.945100 0.600000
270.055180 0.600000
270.068970 0.500000
271.061550 5.500000
272.059940 0.800000
276.088990 0.600000
276.971920 0.600000
278.033870 0.700000
279.059970 1.400000
279.080350 0.500000
281.074190 1.000000
281.088290 1.700000
282.069120 1.000000
282.958280 0.500000
283.061920 93.500000
284.061130 19.500000
284.074830 9.300000
285.056000 1.800000
285.083620 1.600000
286.058170 1.000000
291.074800 0.600000
292.062870 0.500000
293.071870 0.500000
293.089480 1.100000
295.048800 1.100000
295.062650 4.800000
295.093840 0.600000
295.101530 1.100000
297.028900 1.000000
297.047390 0.800000
303.455050 0.500000
305.081180 4.600000
306.079590 0.800000
307.049160 0.800000
307.070130 0.500000
309.029910 2.000000
309.043300 1.400000
309.075780 21.200000
310.078860 5.100000
311.060420 1.600000
313.000580 0.500000
313.071200 66.600000
314.029600 0.500000
314.078610 9.700000
314.843570 0.600000
315.065730 0.500000
315.074490 1.400000
317.428250 0.600000
321.076810 2.700000
321.195920 0.500000
323.068330 1.800000
323.093480 14.400000
323.187930 0.500000
324.088320 3.500000
324.109890 0.700000
325.076110 2.100000
325.098080 0.500000
326.102330 0.600000
329.104610 0.500000
333.075500 2.600000
334.063570 0.600000
334.087280 0.500000
337.066930 21.000000
337.080720 16.200000
338.071110 3.700000
339.081120 1.300000
349.031710 0.600000
349.060940 3.800000
349.075410 8.100000
350.060030 0.700000
350.084110 1.800000
351.068600 0.500000
351.091670 1.000000
355.102050 0.700000
361.042480 0.900000
361.074520 11.500000
362.068420 1.500000
362.078770 1.100000
362.260470 0.500000
363.064210 0.900000
367.079220 20.900000
367.097810 4.100000
367.120790 0.600000
368.083530 7.300000
369.075230 0.900000
369.095180 0.800000
379.050350 2.000000
379.072240 6.900000
379.084380 15.000000
380.066280 1.200000
380.088840 3.500000
380.103580 0.700000
396.408600 0.800000
397.046780 0.900000
397.094180 17.800000
398.089540 4.500000
415.103880 28.700000
416.109920 7.100000
417.093930 0.900000
429.323970 0.600000
432.971860 0.600000
433.068570 2.100000
433.113680 100.000000
433.181210 0.700000

NAME: Jusmicranthin ethyl ether
SCANNUMBER: RIKEN_MONA_225
PRECURSORMZ: 393.096879
PRECURSORTYPE: [M+H]+
IONMODE: Positive
SPECTRUMTYPE: MS2
COLLISIONENERGY: 10 eV
FORMULA: C22H16O7
SMILES: CCOC1OC(=O)c2cc3ccc4c(c3c(-c3ccc5c(c3)OCO5)c21)OCO4
INCHI: InChI=1S/C22H16O7/c1-2-24-22-19-13(21(23)29-22)7-11-4-6-15-20(28-10-26-15)18(11)17(19)12-3-5-14-16(8-12)27-9-25-14/h3-8,22H,2,9-10H2,1H3
INCHIKEY: JJXCEOLNFSCNNE-UHFFFAOYSA-N
RETENTIONTIME: 8.822333
COMMENT: dataset=RIKEN_MONA; source_file=external_data/raw_libraries/RIKEN_MONA.xlsx; source_row=225; RT_sec=529.33998
Num Peaks: 33
177.061750 0.600000
177.079270 0.500000
189.077190 0.600000
205.066100 16.700000
205.080630 0.500000
206.068220 3.600000
233.060240 12.700000
234.053220 1.000000
234.064990 2.100000
235.063140 0.800000
246.064940 0.800000
261.029270 0.600000
261.055360 27.700000
262.058530 6.300000
263.065700 0.900000
289.051540 11.500000
290.054570 3.300000
290.067960 0.800000
291.055690 1.600000
291.069060 2.800000
304.077580 0.900000
317.044130 30.100000
318.049650 7.400000
319.055330 0.600000
319.066310 0.700000
320.079470 0.900000
347.055080 100.000000
348.057770 28.200000
349.043460 1.200000
349.059880 3.100000
363.057830 0.600000
392.090820 9.100000
393.093780 14.400000

NAME: Justicidin G
SCANNUMBER: RIKEN_MONA_226
PRECURSORMZ: 379.081229
PRECURSORTYPE: [M+H]+
IONMODE: Positive
SPECTRUMTYPE: MS2
COLLISIONENERGY: 10 eV
FORMULA: C21H14O7
SMILES: COc1c2c(cc3c(-c4ccc5c(c4)OCO5)c4c(cc13)C(=O)OC4)OCO2
INCHI: InChI=1S/C21H14O7/c1-23-19-12-5-13-14(7-24-21(13)22)18(11(12)6-17-20(19)28-9-27-17)10-2-3-15-16(4-10)26-8-25-15/h2-6H,7-9H2,1H3
INCHIKEY: VINGQMQXGDIELG-UHFFFAOYSA-N
RETENTIONTIME: 8.934183
COMMENT: dataset=RIKEN_MONA; source_file=external_data/raw_libraries/RIKEN_MONA.xlsx; source_row=226; RT_sec=536.05098
Num Peaks: 117
164.058470 0.700000
176.062390 2.000000
189.060360 0.600000
189.071260 3.300000
190.084520 0.700000
191.083940 1.900000
191.092990 0.700000
201.072810 1.000000
202.075100 1.400000
204.047530 0.800000
204.056580 2.600000
204.071460 0.500000
205.055180 1.400000
205.065890 0.500000
206.066930 1.100000
217.056370 0.600000
217.067060 0.600000
218.068440 2.400000
218.078050 0.700000
219.068940 3.800000
219.083890 10.400000
220.057690 0.800000
220.086960 1.400000
229.063170 1.200000
232.052060 3.000000
233.057430 1.700000
234.065720 2.500000
235.067410 1.300000
236.085830 1.000000
245.066150 1.700000
246.066970 20.500000
246.089720 0.600000
247.033600 0.800000
247.069630 9.500000
248.040220 0.600000
248.068390 1.000000
248.085830 1.200000
249.054900 0.600000
249.085590 0.600000
250.058960 0.700000
259.055050 0.800000
259.075740 1.000000
260.043790 1.700000
260.054080 0.600000
261.049930 2.200000
261.069980 0.700000
262.062590 15.600000
262.072450 4.600000
263.035460 0.600000
263.063840 2.500000
264.076780 1.300000
266.071590 0.800000
273.053410 1.600000
273.067750 1.100000
274.026310 0.600000
274.056270 5.600000
274.067050 13.100000
275.028660 0.700000
275.064540 4.600000
275.075230 10.300000
276.048740 0.600000
276.067780 0.700000
276.083100 4.900000
277.053500 1.300000
277.087830 29.800000
278.093930 6.300000
279.066160 0.600000
288.047360 0.600000
289.074980 1.000000
290.058960 15.100000
291.064360 4.800000
292.069240 1.100000
303.062710 15.900000
304.020720 0.800000
304.038600 2.700000
304.073700 23.800000
305.080200 45.600000
305.927030 0.500000
306.048490 0.700000
306.085660 7.300000
307.093320 1.000000
316.036440 1.300000
319.060180 3.600000
319.074430 2.600000
320.067870 12.700000
320.087980 1.200000
321.073880 6.600000
322.076050 1.400000
331.058350 1.100000
332.064480 0.700000
333.084630 1.400000
334.034940 1.000000
334.069210 1.800000
335.054960 1.700000
335.092250 61.400000
335.926180 0.600000
336.087220 6.100000
336.102200 4.400000
336.998350 0.500000
337.098140 1.100000
338.092160 1.100000
347.055600 0.700000
349.070370 49.400000
350.066470 4.200000
350.079350 7.400000
350.092740 3.200000
351.065190 1.100000
351.089390 1.300000
361.022610 0.600000
361.067570 1.500000
363.021150 0.500000
363.063110 0.700000
364.062470 0.600000
378.067540 7.300000
378.088810 1.800000
379.079010 100.000000
379.137080 1.200000

NAME: Kaempferol
SCANNUMBER: RIKEN_MONA_227
PRECURSORMZ: 287.055015
PRECURSORTYPE: [M+H]+
IONMODE: Positive
SPECTRUMTYPE: MS2
COLLISIONENERGY: 10 eV
FORMULA: C15H10O6
SMILES: O=c1c(O)c(-c2ccc(O)cc2)oc2cc(O)cc(O)c12
INCHI: InChI=1S/C15H10O6/c16-8-3-1-7(2-4-8)15-14(20)13(19)12-10(18)5-9(17)6-11(12)21-15/h1-6,16-18,20H
INCHIKEY: IYRMWMYZSQPJKC-UHFFFAOYSA-N
RETENTIONTIME: 6.013550
COMMENT: dataset=RIKEN_MONA; source_file=external_data/raw_libraries/RIKEN_MONA.xlsx; source_row=227; RT_sec=360.813
Num Peaks: 18
121.028630 3.500000
133.029220 0.800000
137.024190 1.600000
145.062030 0.600000
147.040330 0.600000
153.016490 6.900000
154.020230 0.600000
157.065050 1.000000
165.017110 4.000000
167.020280 0.500000
197.058030 0.600000
213.052400 1.100000
241.057570 0.900000
258.040800 0.800000
258.051880 0.500000
259.053680 1.000000
287.023130 2.000000
287.054230 100.000000

NAME: Kaempferol 3-O-sophoroside
SCANNUMBER: RIKEN_MONA_228
PRECURSORMZ: 611.160661
PRECURSORTYPE: [M+H]+
IONMODE: Positive
SPECTRUMTYPE: MS2
COLLISIONENERGY: 10 eV
FORMULA: C27H30O16
SMILES: O=c1c(O[C@@H]2O[C@H](CO)[C@@H](O)[C@H](O)[C@H]2O[C@@H]2O[C@H](CO)[C@@H](O)[C@H](O)[C@H]2O)c(-c2ccc(O)cc2)oc2cc(O)cc(O)c12
INCHI: InChI=1S/C27H30O16/c28-7-14-17(33)20(36)22(38)26(40-14)43-25-21(37)18(34)15(8-29)41-27(25)42-24-19(35)16-12(32)5-11(31)6-13(16)39-23(24)9-1-3-10(30)4-2-9/h1-6,14-15,17-18,20-22,25-34,36-38H,7-8H2/t14-,15-,17-,18-,20+,21+,22-,25-,26+,27+/m1/s1
INCHIKEY: LKZDFKLGDGSGEO-UJECXLDQSA-N
RETENTIONTIME: 3.799717
COMMENT: dataset=RIKEN_MONA; source_file=external_data/raw_libraries/RIKEN_MONA.xlsx; source_row=228; RT_sec=227.983019999999
Num Peaks: 25
106.726070 1.000000
127.037120 1.600000
127.044680 1.500000
145.049210 1.400000
163.063780 1.000000
231.069080 0.800000
286.871830 0.800000
287.010040 2.400000
287.055760 100.000000
288.037230 0.800000
288.056580 8.300000
288.074370 2.300000
289.053220 1.100000
290.064510 1.800000
329.050170 1.200000
329.068700 1.000000
367.079800 0.900000
395.060060 1.100000
413.087830 0.800000
449.060000 1.100000
449.100490 4.500000
449.130650 1.800000
450.094600 1.800000
611.111210 0.900000
611.153320 8.400000

NAME: Kaempferol-3-O-arabinoside
SCANNUMBER: RIKEN_MONA_229
PRECURSORMZ: 417.082720
PRECURSORTYPE: [M-H]-
IONMODE: Negative
SPECTRUMTYPE: MS2
COLLISIONENERGY: 10 eV
FORMULA: C20H18O10
SMILES: O=c1c(OC2OCC(O)C(O)C2O)c(-c2ccc(O)cc2)oc2cc(O)cc(O)c12
INCHI: InChI=1S/C20H18O10/c21-9-3-1-8(2-4-9)18-19(30-20-17(27)15(25)12(24)7-28-20)16(26)14-11(23)5-10(22)6-13(14)29-18/h1-6,12,15,17,20-25,27H,7H2
INCHIKEY: RNVUDWOQYYWXBJ-UHFFFAOYSA-N
RETENTIONTIME: 4.471500
COMMENT: dataset=RIKEN_MONA; source_file=external_data/raw_libraries/RIKEN_MONA.xlsx; source_row=229; RT_sec=268.289999999999
Num Peaks: 57
127.723380 0.600000
133.108540 0.700000
140.992600 0.700000
144.582900 0.700000
148.990490 0.600000
150.999440 2.800000
163.003360 0.800000
169.060530 0.700000
177.018970 0.800000
178.991780 0.600000
178.999400 0.800000
181.125840 0.600000
183.035610 1.000000
183.042080 1.100000
183.052510 1.000000
189.053130 0.700000
190.993700 0.600000
195.047100 0.800000
200.049260 0.600000
211.035540 1.000000
211.043880 1.900000
212.038970 0.600000
213.056350 1.400000
214.023420 0.600000
216.032760 0.700000
216.078030 0.700000
226.017170 0.600000
227.034730 38.300000
228.031980 2.400000
228.040950 4.900000
228.060670 0.600000
229.032810 0.700000
229.045150 2.100000
231.065440 0.600000
231.489040 0.600000
236.059480 0.800000
240.034650 0.900000
241.050960 0.800000
243.027710 0.600000
255.028170 60.800000
255.058730 0.700000
256.031650 12.700000
257.022060 1.200000
257.032010 0.600000
257.049900 0.800000
268.036710 0.700000
278.477630 0.600000
284.032410 89.600000
285.036440 31.800000
285.058440 1.400000
286.030490 1.400000
286.041170 5.200000
317.444640 1.300000
327.056180 1.100000
412.674650 0.600000
417.081330 100.000000
417.139680 0.700000

NAME: Kaempferol-3-O-galactoside-6''-rhamnoside-3'''-rha
SCANNUMBER: RIKEN_MONA_230
PRECURSORMZ: 741.223655
PRECURSORTYPE: [M+H]+
IONMODE: Positive
SPECTRUMTYPE: MS2
COLLISIONENERGY: 10 eV
FORMULA: C33H40O19
SMILES: C[C@@H]1O[C@@H](OC[C@H]2O[C@@H](Oc3c(-c4ccc(O)cc4)oc4cc(O)cc(O)c4c3=O)[C@H](O)[C@@H](O)[C@H]2O)[C@H](O)[C@H](O[C@@H]2O[C@@H](C)[C@H](O)[C@@H](O)[C@H]2O)[C@H]1O
INCHI: InChI=1S/C33H40O19/c1-10-19(37)23(41)25(43)32(48-10)51-29-20(38)11(2)47-31(27(29)45)46-9-17-21(39)24(42)26(44)33(50-17)52-30-22(40)18-15(36)7-14(35)8-16(18)49-28(30)12-3-5-13(34)6-4-12/h3-8,10-11,17,19-21,23-27,29,31-39,41-45H,9H2,1-2H3/t10-,11-,17+,19-,20-,21-,23+,24-,25+,26+,27+,29+,31+,32-,33-/m0/s1
INCHIKEY: UYVBMGULWGRDQT-KABOUGNXSA-N
RETENTIONTIME: 3.980733
COMMENT: dataset=RIKEN_MONA; source_file=external_data/raw_libraries/RIKEN_MONA.xlsx; source_row=230; RT_sec=238.84398
Num Peaks: 36
85.028530 1.700000
113.065440 0.700000
117.060010 1.400000
129.054670 3.300000
147.061290 1.300000
147.071820 0.900000
163.051650 0.700000
163.062670 4.300000
213.089840 0.500000
257.092680 0.600000
275.109830 1.200000
275.763210 0.500000
287.023770 1.600000
287.056790 100.000000
288.052430 11.600000
288.066800 9.300000
289.027650 0.500000
289.046570 0.500000
289.059510 0.800000
289.073150 1.600000
293.125820 1.500000
293.156460 0.600000
309.120180 0.500000
431.095490 0.600000
433.109100 1.600000
433.131230 0.700000
434.119450 0.700000
448.971040 0.600000
449.095860 5.900000
449.118620 6.500000
450.121400 3.400000
595.148010 2.400000
595.185910 1.200000
596.150700 0.500000
741.212950 11.300000
741.247190 8.600000

NAME: Kaempferol-3-O-galactoside-7-O-rhamnoside
SCANNUMBER: RIKEN_MONA_231
PRECURSORMZ: 595.165747
PRECURSORTYPE: [M+H]+
IONMODE: Positive
SPECTRUMTYPE: MS2
COLLISIONENERGY: 10 eV
FORMULA: C27H30O15
SMILES: C[C@@H]1O[C@@H](Oc2cc(O)c3c(=O)c(O[C@@H]4O[C@H](CO)[C@H](O)[C@H](O)[C@H]4O)c(-c4ccc(O)cc4)oc3c2)[C@H](O)[C@H](O)[C@H]1O
INCHI: InChI=1S/C27H30O15/c1-9-17(31)20(34)22(36)26(38-9)39-12-6-13(30)16-14(7-12)40-24(10-2-4-11(29)5-3-10)25(19(16)33)42-27-23(37)21(35)18(32)15(8-28)41-27/h2-7,9,15,17-18,20-23,26-32,34-37H,8H2,1H3/t9-,15+,17-,18-,20+,21-,22+,23+,26-,27-/m0/s1
INCHIKEY: JYXSWDCPHRTYGU-VYARGGPUSA-N
RETENTIONTIME: 3.571450
COMMENT: dataset=RIKEN_MONA; source_file=external_data/raw_libraries/RIKEN_MONA.xlsx; source_row=231; RT_sec=214.287
Num Peaks: 20
61.028850 0.600000
127.037630 1.000000
145.045330 1.200000
176.693680 0.500000
287.054720 100.000000
287.570830 0.500000
288.056550 18.400000
288.075780 2.200000
289.057740 2.100000
289.071900 1.600000
299.058200 0.600000
330.163730 0.700000
433.066770 1.600000
433.109890 44.900000
434.113070 7.900000
434.131070 1.800000
435.102630 0.600000
449.098270 0.800000
450.118500 0.500000
595.165410 27.000000

NAME: Kaempferol-3-O-glucoside
SCANNUMBER: RIKEN_MONA_232
PRECURSORMZ: 449.107838
PRECURSORTYPE: [M+H]+
IONMODE: Positive
SPECTRUMTYPE: MS2
COLLISIONENERGY: 10 eV
FORMULA: C21H20O11
SMILES: O=c1c(O[C@@H]2O[C@H](CO)[C@@H](O)[C@H](O)[C@H]2O)c(-c2ccc(O)cc2)oc2cc(O)cc(O)c12
INCHI: InChI=1S/C21H20O11/c22-7-13-15(26)17(28)18(29)21(31-13)32-20-16(27)14-11(25)5-10(24)6-12(14)30-19(20)8-1-3-9(23)4-2-8/h1-6,13,15,17-18,21-26,28-29H,7H2/t13-,15-,17+,18-,21+/m1/s1
INCHIKEY: JPUKWEQWGBDDQB-QSOFNFLRSA-N
RETENTIONTIME: 4.317833
COMMENT: dataset=RIKEN_MONA; source_file=external_data/raw_libraries/RIKEN_MONA.xlsx; source_row=232; RT_sec=259.06998
Num Peaks: 25
85.025570 1.900000
91.034670 0.600000
91.042510 1.100000
97.027950 1.100000
99.038910 0.700000
145.059910 1.100000
155.057770 1.100000
157.064470 0.700000
165.013320 1.400000
214.067030 1.200000
286.044340 0.800000
287.021850 1.100000
287.055790 100.000000
288.052730 16.200000
288.064760 7.900000
289.068330 0.600000
289.078580 0.600000
289.237880 0.600000
299.072300 0.700000
311.052640 0.700000
345.063200 0.600000
353.057040 0.900000
449.092900 2.400000
449.113560 2.700000
449.131770 1.400000

NAME: Kaempferol-3-O-glucoside-2''-p-coumaroyl
SCANNUMBER: RIKEN_MONA_233
PRECURSORMZ: 593.130064
PRECURSORTYPE: [M-H]-
IONMODE: Negative
SPECTRUMTYPE: MS2
COLLISIONENERGY: 10 eV
FORMULA: C30H26O13
SMILES: O=C(/C=C/c1ccc(O)cc1)OC1C(Oc2c(-c3ccc(O)cc3)oc3cc(O)cc(O)c3c2=O)OC(CO)C(O)C1O
INCHI: InChI=1S/C30H26O13/c31-13-21-24(37)26(39)29(42-22(36)10-3-14-1-6-16(32)7-2-14)30(41-21)43-28-25(38)23-19(35)11-18(34)12-20(23)40-27(28)15-4-8-17(33)9-5-15/h1-12,21,24,26,29-35,37,39H,13H2/b10-3+
INCHIKEY: IKONEAPXVKTZFF-XCVCLJGOSA-N
RETENTIONTIME: 5.315750
COMMENT: dataset=RIKEN_MONA; source_file=external_data/raw_libraries/RIKEN_MONA.xlsx; source_row=233; RT_sec=318.945
Num Peaks: 27
65.003140 0.500000
119.045330 0.600000
145.026760 2.600000
151.000560 3.300000
162.998500 0.600000
163.036300 1.300000
165.051470 0.700000
213.054030 1.300000
227.027420 1.000000
227.038020 0.700000
229.050840 0.800000
241.053860 0.900000
255.027310 0.600000
257.039000 1.300000
257.051120 1.800000
283.015620 0.800000
284.024990 0.500000
284.032990 1.400000
284.044250 0.900000
285.039250 100.000000
286.037020 5.100000
286.044680 12.700000
287.042600 2.200000
307.081600 9.400000
308.083560 1.700000
447.090910 1.000000
593.130310 17.700000

NAME: Kaempferol-3-O-glucoside-3''-rhamnoside
SCANNUMBER: RIKEN_MONA_234
PRECURSORMZ: 595.165747
PRECURSORTYPE: [M+H]+
IONMODE: Positive
SPECTRUMTYPE: MS2
COLLISIONENERGY: 10 eV
FORMULA: C27H30O15
SMILES: C[C@@H]1O[C@@H](O[C@@H]2[C@@H](O)[C@H](Oc3c(-c4ccc(O)cc4)oc4cc(O)cc(O)c4c3=O)O[C@H](CO)[C@H]2O)[C@H](O)[C@H](O)[C@H]1O
INCHI: InChI=1S/C27H30O15/c1-9-17(32)20(35)21(36)26(38-9)41-24-18(33)15(8-28)40-27(22(24)37)42-25-19(34)16-13(31)6-12(30)7-14(16)39-23(25)10-2-4-11(29)5-3-10/h2-7,9,15,17-18,20-22,24,26-33,35-37H,8H2,1H3/t9-,15+,17-,18+,20+,21+,22+,24-,26-,27-/m0/s1
INCHIKEY: YFPYXTNSQOUHPS-NIILUQFKSA-N
RETENTIONTIME: 4.151183
COMMENT: dataset=RIKEN_MONA; source_file=external_data/raw_libraries/RIKEN_MONA.xlsx; source_row=234; RT_sec=249.070979999999
Num Peaks: 30
71.054760 1.000000
85.031280 1.700000
111.903410 0.500000
127.037040 0.700000
129.051350 4.000000
145.052320 0.900000
147.061710 1.500000
164.465260 0.600000
165.078980 0.700000
280.258970 0.600000
286.976260 0.600000
287.017520 1.600000
287.054900 100.000000
287.068330 22.700000
288.043850 3.600000
288.060520 8.900000
289.049930 1.500000
289.070920 1.700000
329.060460 0.500000
425.656460 1.100000
433.104190 1.700000
449.090480 6.400000
449.127500 3.400000
450.093870 1.000000
450.116910 2.100000
450.142760 0.900000
517.049320 0.700000
595.099300 1.500000
595.146480 3.900000
595.168400 8.700000

NAME: Kaempferol-3-O-glucoside-6''-p-coumaroyl
SCANNUMBER: RIKEN_MONA_235
PRECURSORMZ: 595.144617
PRECURSORTYPE: [M+H]+
IONMODE: Positive
SPECTRUMTYPE: MS2
COLLISIONENERGY: 10 eV
FORMULA: C30H26O13
SMILES: O=C(/C=C/c1ccc(O)cc1)OC[C@H]1O[C@@H](Oc2c(-c3ccc(O)cc3)oc3cc(O)cc(O)c3c2=O)[C@H](O)[C@@H](O)[C@@H]1O
INCHI: InChI=1S/C30H26O13/c31-16-6-1-14(2-7-16)3-10-22(35)40-13-21-24(36)26(38)27(39)30(42-21)43-29-25(37)23-19(34)11-18(33)12-20(23)41-28(29)15-4-8-17(32)9-5-15/h1-12,21,24,26-27,30-34,36,38-39H,13H2/b10-3+/t21-,24-,26+,27-,30+/m1/s1
INCHIKEY: DVGGLGXQSFURLP-VWMSDXGPSA-N
RETENTIONTIME: 5.209317
COMMENT: dataset=RIKEN_MONA; source_file=external_data/raw_libraries/RIKEN_MONA.xlsx; source_row=235; RT_sec=312.55902
Num Peaks: 32
109.027520 0.600000
120.046300 0.600000
127.039230 0.700000
146.970490 0.600000
147.012050 1.400000
147.042530 100.000000
147.094060 0.800000
148.044770 10.800000
148.057590 0.800000
150.474330 0.700000
157.209700 0.500000
165.048780 8.700000
165.059740 3.100000
166.052470 1.000000
166.057950 1.700000
287.010620 1.300000
287.042240 10.000000
287.054930 33.000000
288.038880 0.700000
288.058010 8.500000
291.072480 2.800000
291.086180 8.300000
292.092830 2.500000
293.092530 0.800000
309.093260 20.300000
309.105440 4.700000
310.087650 1.300000
310.097290 4.100000
311.105900 0.800000
329.048310 0.600000
431.094330 0.800000
595.144100 17.200000

NAME: Kaempferol-3-O-glucoside-7-O-rhamnoside
SCANNUMBER: RIKEN_MONA_236
PRECURSORMZ: 595.165747
PRECURSORTYPE: [M+H]+
IONMODE: Positive
SPECTRUMTYPE: MS2
COLLISIONENERGY: 30 eV
FORMULA: C27H30O15
SMILES: CC1OC(Oc2cc(O)c3c(=O)c(OC4OC(CO)C(O)C(O)C4O)c(-c4ccc(O)cc4)oc3c2)C(O)C(O)C1O
INCHI: InChI=1S/C27H30O15/c1-9-17(31)20(34)22(36)26(38-9)39-12-6-13(30)16-14(7-12)40-24(10-2-4-11(29)5-3-10)25(19(16)33)42-27-23(37)21(35)18(32)15(8-28)41-27/h2-7,9,15,17-18,20-23,26-32,34-37H,8H2,1H3
INCHIKEY: JYXSWDCPHRTYGU-UHFFFAOYSA-N
RETENTIONTIME: 3.699467
COMMENT: dataset=RIKEN_MONA; source_file=external_data/raw_libraries/RIKEN_MONA.xlsx; source_row=236; RT_sec=221.96802
Num Peaks: 6
85.026120 1.200000
85.031550 1.000000
287.054530 100.000000
288.056400 13.500000
289.056300 1.500000
289.072880 1.000000

NAME: Kaempferol-3-O-glucuronoside
SCANNUMBER: RIKEN_MONA_237
PRECURSORMZ: 463.087103
PRECURSORTYPE: [M+H]+
IONMODE: Positive
SPECTRUMTYPE: MS2
COLLISIONENERGY: 10 eV
FORMULA: C21H18O12
SMILES: O=C(O)[C@H]1O[C@@H](Oc2c(-c3ccc(O)cc3)oc3cc(O)cc(O)c3c2=O)[C@H](O)[C@@H](O)[C@@H]1O
INCHI: InChI=1S/C21H18O12/c22-8-3-1-7(2-4-8)17-18(13(25)12-10(24)5-9(23)6-11(12)31-17)32-21-16(28)14(26)15(27)19(33-21)20(29)30/h1-6,14-16,19,21-24,26-28H,(H,29,30)/t14-,15-,16+,19-,21+/m0/s1
INCHIKEY: FNTJVYCFNVUBOL-ZUGPOPFOSA-N
RETENTIONTIME: 4.343433
COMMENT: dataset=RIKEN_MONA; source_file=external_data/raw_libraries/RIKEN_MONA.xlsx; source_row=237; RT_sec=260.60598
Num Peaks: 40
85.025900 1.900000
89.016490 0.700000
100.009790 0.600000
105.034780 0.800000
114.027690 0.700000
115.028760 0.700000
121.023610 0.600000
131.854890 0.600000
137.011220 0.700000
141.019120 1.300000
159.026980 3.800000
165.018080 0.700000
166.005420 0.800000
187.779800 0.500000
213.044420 0.500000
242.296620 0.700000
265.115480 0.600000
281.420720 0.700000
284.759920 0.800000
286.624880 0.700000
286.887240 0.600000
287.005070 0.600000
287.053650 100.000000
287.081480 1.400000
287.202880 0.500000
288.025480 0.500000
288.049040 10.400000
288.060270 7.800000
288.076690 1.800000
288.303380 0.500000
289.050840 2.200000
289.064300 1.700000
298.113920 0.600000
316.990230 1.300000
325.063350 0.800000
354.067170 0.500000
384.164310 1.300000
427.079650 0.500000
463.075680 7.000000
463.094360 11.000000

NAME: Kaempferol-3-O-rhamnoside
SCANNUMBER: RIKEN_MONA_238
PRECURSORMZ: 433.112923
PRECURSORTYPE: [M+H]+
IONMODE: Positive
SPECTRUMTYPE: MS2
COLLISIONENERGY: 10 eV
FORMULA: C21H20O10
SMILES: C[C@@H]1O[C@@H](Oc2c(-c3ccc(O)cc3)oc3cc(O)cc(O)c3c2=O)[C@H](O)[C@H](O)[C@H]1O
INCHI: InChI=1S/C21H20O10/c1-8-15(25)17(27)18(28)21(29-8)31-20-16(26)14-12(24)6-11(23)7-13(14)30-19(20)9-2-4-10(22)5-3-9/h2-8,15,17-18,21-25,27-28H,1H3/t8-,15-,17+,18+,21-/m0/s1
INCHIKEY: SOSLMHZOJATCCP-AEIZVZFYSA-N
RETENTIONTIME: 3.943583
COMMENT: dataset=RIKEN_MONA; source_file=external_data/raw_libraries/RIKEN_MONA.xlsx; source_row=238; RT_sec=236.61498
Num Peaks: 12
147.047840 0.600000
153.016340 0.500000
153.023910 0.700000
165.013260 0.700000
165.019780 1.600000
166.021790 0.700000
287.022460 1.600000
287.054470 100.000000
288.056520 19.400000
289.057740 2.600000
289.071290 0.500000
433.112400 22.600000

NAME: Kaempferol-3-O-rhamnoside-7-O-rhamnoside
SCANNUMBER: RIKEN_MONA_239
PRECURSORMZ: 579.170832
PRECURSORTYPE: [M+H]+
IONMODE: Positive
SPECTRUMTYPE: MS2
COLLISIONENERGY: 10 eV
FORMULA: C27H30O14
SMILES: C[C@@H]1O[C@@H](Oc2cc(O)c3c(=O)c(O[C@@H]4O[C@@H](C)[C@H](O)[C@H](O)[C@H]4O)c(-c4ccc(O)cc4)oc3c2)[C@H](O)[C@@H](O)[C@H]1O
INCHI: InChI=1S/C27H30O14/c1-9-17(30)20(33)22(35)26(37-9)39-13-7-14(29)16-15(8-13)40-24(11-3-5-12(28)6-4-11)25(19(16)32)41-27-23(36)21(34)18(31)10(2)38-27/h3-10,17-18,20-23,26-31,33-36H,1-2H3/t9-,10-,17-,18-,20-,21-,22+,23+,26-,27-/m0/s1
INCHIKEY: PUPKKEQDLNREIM-KPQJDSDZSA-N
RETENTIONTIME: 3.943583
COMMENT: dataset=RIKEN_MONA; source_file=external_data/raw_libraries/RIKEN_MONA.xlsx; source_row=239; RT_sec=236.61498
Num Peaks: 33
71.047680 1.600000
85.026860 5.700000
111.047250 1.000000
121.031910 1.000000
129.054980 4.400000
147.066040 1.800000
155.319210 0.900000
281.674590 0.600000
287.005190 2.100000
287.015900 2.600000
287.054930 100.000000
288.051670 5.400000
288.065430 11.000000
289.023650 0.900000
289.064150 2.200000
397.041500 1.000000
397.095400 1.200000
421.089450 0.900000
433.051510 1.300000
433.114290 64.600000
434.058930 2.300000
434.110660 6.200000
434.126400 6.200000
434.139040 2.000000
435.088230 1.000000
435.111820 1.700000
435.131650 0.700000
437.588320 0.900000
439.567690 0.700000
457.074430 1.000000
578.577330 0.600000
579.124330 0.700000
579.175660 18.900000

NAME: Kaempferol-3-O-robinoside-7-O-rhamnoside
SCANNUMBER: RIKEN_MONA_240
PRECURSORMZ: 741.223655
PRECURSORTYPE: [M+H]+
IONMODE: Positive
SPECTRUMTYPE: MS2
COLLISIONENERGY: 10 eV
FORMULA: C33H40O19
SMILES: C[C@@H]1O[C@@H](Oc2cc(O)c3c(=O)c(O[C@@H]4O[C@H](CO[C@@H]5O[C@@H](C)[C@H](O)[C@@H](O)[C@H]5O)[C@H](O)[C@H](O)[C@H]4O)c(-c4ccc(O)cc4)oc3c2)[C@H](O)[C@H](O)[C@H]1O
INCHI: InChI=1S/C33H40O19/c1-10-19(36)23(40)26(43)31(47-10)46-9-17-21(38)25(42)28(45)33(51-17)52-30-22(39)18-15(35)7-14(49-32-27(44)24(41)20(37)11(2)48-32)8-16(18)50-29(30)12-3-5-13(34)6-4-12/h3-8,10-11,17,19-21,23-28,31-38,40-45H,9H2,1-2H3/t10-,11-,17+,19-,20-,21-,23+,24+,25-,26+,27+,28+,31+,32-,33-/m0/s1
INCHIKEY: PEFASEPMJYRQBW-HKWQTAEVSA-N
RETENTIONTIME: 3.552233
COMMENT: dataset=RIKEN_MONA; source_file=external_data/raw_libraries/RIKEN_MONA.xlsx; source_row=240; RT_sec=213.13398
Num Peaks: 55
71.054690 0.500000
99.041400 1.500000
106.646260 0.600000
111.043830 0.500000
127.034570 1.200000
127.049900 0.600000
129.046620 2.900000
129.057890 1.100000
130.059370 0.700000
147.056380 0.500000
147.072390 1.300000
163.077300 0.500000
165.085800 0.600000
182.902790 0.600000
199.058700 0.600000
266.079410 1.000000
270.622770 0.500000
287.052800 100.000000
287.987950 0.600000
288.033330 2.100000
288.061220 16.500000
289.044280 0.800000
289.059540 2.600000
295.213590 0.500000
312.064790 0.500000
329.059080 1.000000
356.144840 0.600000
367.013090 0.700000
412.215420 0.900000
415.103120 0.500000
433.099760 35.100000
433.116150 30.500000
433.130460 20.800000
434.097260 4.100000
434.117890 20.400000
434.143800 4.500000
435.111940 1.300000
435.134830 0.900000
436.128450 1.200000
449.094060 0.700000
579.153990 1.300000
579.189090 1.100000
580.174380 0.500000
581.340150 0.500000
583.618230 0.600000
595.152590 13.900000
595.179500 15.800000
596.092650 0.500000
596.153320 7.200000
596.203980 3.900000
597.151730 2.800000
597.176450 1.900000
741.156370 1.100000
741.200560 16.600000
741.243900 20.700000

NAME: Kaempferol-3-O-rutinoside
SCANNUMBER: RIKEN_MONA_241
PRECURSORMZ: 595.165747
PRECURSORTYPE: [M+H]+
IONMODE: Positive
SPECTRUMTYPE: MS2
COLLISIONENERGY: 10 eV
FORMULA: C27H30O15
SMILES: C[C@@H]1O[C@@H](OC[C@H]2O[C@@H](Oc3c(-c4ccc(O)cc4)oc4cc(O)cc(O)c4c3=O)[C@H](O)[C@@H](O)[C@@H]2O)[C@H](O)[C@H](O)[C@H]1O
INCHI: InChI=1S/C27H30O15/c1-9-17(31)20(34)22(36)26(39-9)38-8-15-18(32)21(35)23(37)27(41-15)42-25-19(33)16-13(30)6-12(29)7-14(16)40-24(25)10-2-4-11(28)5-3-10/h2-7,9,15,17-18,20-23,26-32,34-37H,8H2,1H3/t9-,15+,17-,18+,20+,21-,22+,23+,26+,27-/m0/s1
INCHIKEY: RTATXGUCZHCSNG-QHWHWDPRSA-N
RETENTIONTIME: 4.137733
COMMENT: dataset=RIKEN_MONA; source_file=external_data/raw_libraries/RIKEN_MONA.xlsx; source_row=241; RT_sec=248.26398
Num Peaks: 25
85.021740 0.700000
100.044690 0.700000
127.039820 0.800000
129.046570 0.800000
147.064470 0.900000
175.073820 0.800000
195.328430 0.600000
242.751850 0.600000
286.975770 0.600000
287.011410 1.000000
287.022830 1.100000
287.053920 100.000000
287.120090 0.500000
288.059810 15.100000
289.054530 1.000000
289.066930 2.200000
289.168520 0.600000
306.599370 0.600000
431.101260 0.700000
449.105590 13.400000
450.107510 4.900000
451.114840 0.900000
531.309270 1.000000
595.125240 2.100000
595.169010 10.800000

NAME: Kaempferol-4'-methyl ether
SCANNUMBER: RIKEN_MONA_242
PRECURSORMZ: 301.070665
PRECURSORTYPE: [M+H]+
IONMODE: Positive
SPECTRUMTYPE: MS2
COLLISIONENERGY: 10 eV
FORMULA: C16H12O6
SMILES: COc1ccc(-c2oc3cc(O)cc(O)c3c(=O)c2O)cc1
INCHI: InChI=1S/C16H12O6/c1-21-10-4-2-8(3-5-10)16-15(20)14(19)13-11(18)6-9(17)7-12(13)22-16/h2-7,17-18,20H,1H3
INCHIKEY: SQFSKOYWJBQGKQ-UHFFFAOYSA-N
RETENTIONTIME: 7.544483
COMMENT: dataset=RIKEN_MONA; source_file=external_data/raw_libraries/RIKEN_MONA.xlsx; source_row=242; RT_sec=452.66898
Num Peaks: 32
106.041940 0.700000
135.042360 1.700000
137.027020 0.800000
139.037090 2.400000
139.042650 1.000000
152.006100 0.700000
153.018010 4.100000
161.060750 0.800000
165.017990 2.800000
171.081910 0.800000
201.054720 1.000000
202.054080 0.900000
213.055730 1.400000
228.037320 0.600000
229.047210 6.400000
230.052000 4.100000
230.059750 3.600000
231.056640 0.900000
241.053650 0.500000
245.083770 0.900000
257.047940 1.400000
258.049800 3.900000
259.058350 0.900000
269.040310 0.700000
271.063630 0.700000
272.061920 1.500000
286.041500 2.100000
286.053500 1.900000
287.053070 0.800000
301.031010 0.700000
301.069980 100.000000
301.119870 1.100000

NAME: Kaempferol-7-O-neohesperidoside
SCANNUMBER: RIKEN_MONA_243
PRECURSORMZ: 595.165747
PRECURSORTYPE: [M+H]+
IONMODE: Positive
SPECTRUMTYPE: MS2
COLLISIONENERGY: 10 eV
FORMULA: C27H30O15
SMILES: C[C@@H]1O[C@@H](O[C@H]2[C@H](Oc3cc(O)c4c(=O)c(O)c(-c5ccc(O)cc5)oc4c3)O[C@H](CO)[C@@H](O)[C@@H]2O)[C@H](O)[C@H](O)[C@H]1O
INCHI: InChI=1S/C27H30O15/c1-9-17(31)20(34)23(37)26(38-9)42-25-21(35)18(32)15(8-28)41-27(25)39-12-6-13(30)16-14(7-12)40-24(22(36)19(16)33)10-2-4-11(29)5-3-10/h2-7,9,15,17-18,20-21,23,25-32,34-37H,8H2,1H3/t9-,15+,17-,18+,20+,21-,23+,25+,26-,27+/m0/s1
INCHIKEY: ZEJXENDZTYVXDP-CSJHBIPPSA-N
RETENTIONTIME: 4.331850
COMMENT: dataset=RIKEN_MONA; source_file=external_data/raw_libraries/RIKEN_MONA.xlsx; source_row=243; RT_sec=259.911
Num Peaks: 30
71.050700 1.000000
85.029330 0.600000
127.026080 0.600000
129.046910 1.700000
130.057620 0.600000
147.063260 0.600000
148.069660 0.700000
200.011410 0.600000
286.952090 0.600000
287.014620 0.600000
287.029750 5.200000
287.056460 100.000000
288.021390 0.600000
288.048680 7.100000
288.060640 15.100000
288.674440 0.600000
289.049220 2.200000
289.061490 2.200000
289.077550 1.800000
291.070980 0.500000
309.122470 1.000000
325.080690 0.900000
395.070740 0.600000
415.109410 0.600000
416.578030 0.600000
449.074680 0.600000
449.110110 3.500000
450.110350 2.400000
595.102840 0.800000
595.170350 20.600000

NAME: Kaempferol-7-O-rhamnoside
SCANNUMBER: RIKEN_MONA_244
PRECURSORMZ: 433.112923
PRECURSORTYPE: [M+H]+
IONMODE: Positive
SPECTRUMTYPE: MS2
COLLISIONENERGY: 10 eV
FORMULA: C21H20O10
SMILES: C[C@H]1OC(Oc2cc(O)c3c(=O)c(O)c(-c4ccc(O)cc4)oc3c2)[C@@H](O)[C@@H](O)[C@@H]1O
INCHI: InChI=1S/C21H20O10/c1-8-15(24)17(26)19(28)21(29-8)30-11-6-12(23)14-13(7-11)31-20(18(27)16(14)25)9-2-4-10(22)5-3-9/h2-8,15,17,19,21-24,26-28H,1H3/t8-,15-,17+,19+,21?/m1/s1
INCHIKEY: HQNOUCSPWAGQND-UIXBWGQISA-N
RETENTIONTIME: 5.282817
COMMENT: dataset=RIKEN_MONA; source_file=external_data/raw_libraries/RIKEN_MONA.xlsx; source_row=244; RT_sec=316.96902
Num Peaks: 19
129.071080 0.600000
133.027240 0.700000
153.005520 0.500000
153.016890 2.800000
165.019970 1.100000
166.024810 0.600000
200.037400 0.500000
231.067170 0.900000
259.036800 0.800000
286.999420 1.000000
287.054660 100.000000
288.056790 13.900000
288.076900 1.500000
289.061980 2.800000
289.073000 0.600000
433.058140 0.800000
433.084470 1.900000
433.111660 13.400000
433.140720 0.600000

NAME: Kainic acid
SCANNUMBER: RIKEN_MONA_245
PRECURSORMZ: 214.107384
PRECURSORTYPE: [M+H]+
IONMODE: Positive
SPECTRUMTYPE: MS2
COLLISIONENERGY: 10 eV
FORMULA: C10H15NO4
SMILES: C=C(C)[C@H]1CN[C@H](C(=O)O)[C@H]1CC(=O)O
INCHI: InChI=1S/C10H15NO4/c1-5(2)7-4-11-9(10(14)15)6(7)3-8(12)13/h6-7,9,11H,1,3-4H2,2H3,(H,12,13)(H,14,15)/t6-,7+,9-/m0/s1
INCHIKEY: VLSMHEGGTFMBBZ-OOZYFLPDSA-N
RETENTIONTIME: 2.435367
COMMENT: dataset=RIKEN_MONA; source_file=external_data/raw_libraries/RIKEN_MONA.xlsx; source_row=245; RT_sec=146.12202
Num Peaks: 39
74.024090 3.300000
79.054380 1.100000
80.044760 1.300000
80.050950 7.800000
81.056690 0.700000
81.072010 2.200000
84.044680 0.700000
85.063910 0.600000
93.070770 2.400000
94.068010 0.500000
95.085140 5.200000
96.092200 0.500000
99.080780 0.700000
105.074650 0.500000
107.087320 2.200000
108.042530 0.600000
108.081310 4.000000
109.062930 0.500000
109.070340 0.500000
109.085180 1.400000
110.099140 0.700000
112.038480 1.500000
122.096760 36.100000
123.077900 1.200000
123.099940 3.700000
124.114360 1.100000
126.050580 4.000000
126.057530 4.200000
150.091480 11.000000
154.087160 6.200000
168.074190 0.500000
168.102620 41.800000
169.103840 3.600000
186.117080 1.100000
196.099150 7.900000
197.096210 0.700000
214.068040 0.800000
214.107940 100.000000
214.149610 2.200000

NAME: Karakoline
SCANNUMBER: RIKEN_MONA_246
PRECURSORMZ: 378.263885
PRECURSORTYPE: [M+H]+
IONMODE: Positive
SPECTRUMTYPE: MS2
COLLISIONENERGY: 10 eV
FORMULA: C22H35NO4
SMILES: CCN1C[C@]2(C)CC[C@H](O)[C@]34[C@@H]1[C@H](C[C@@H]32)[C@@]1(O)C[C@H](OC)[C@H]2C[C@@H]4[C@@H]1[C@H]2O
INCHI: InChI=1S/C22H35NO4/c1-4-23-10-20(2)6-5-16(24)22-12-7-11-14(27-3)9-21(26,17(12)18(11)25)13(19(22)23)8-15(20)22/h11-19,24-26H,4-10H2,1-3H3/t11-,12-,13+,14+,15-,16+,17-,18+,19+,20+,21+,22-/m1/s1
INCHIKEY: HKQZUYOVMYOFIT-OBVLDVSJSA-N
RETENTIONTIME: 2.889217
COMMENT: dataset=RIKEN_MONA; source_file=external_data/raw_libraries/RIKEN_MONA.xlsx; source_row=246; RT_sec=173.35302
Num Peaks: 9
124.110020 0.600000
328.227200 1.400000
342.235990 0.700000
342.248900 0.600000
360.254120 14.400000
361.258360 4.100000
362.262300 0.600000
378.264740 100.000000
378.320950 2.700000

NAME: Kopsinine
SCANNUMBER: RIKEN_MONA_247
PRECURSORMZ: 339.206705
PRECURSORTYPE: [M+H]+
IONMODE: Positive
SPECTRUMTYPE: MS2
COLLISIONENERGY: 10 eV
FORMULA: C21H26N2O2
SMILES: COC(=O)[C@@H]1C[C@@]23CCCN4CC[C@@]5(c6ccccc6N[C@]15CC2)C43
INCHI: InChI=1S/C21H26N2O2/c1-25-17(24)15-13-19-7-4-11-23-12-10-20(18(19)23)14-5-2-3-6-16(14)22-21(15,20)9-8-19/h2-3,5-6,15,18,22H,4,7-13H2,1H3/t15-,18?,19+,20+,21+/m0/s1
INCHIKEY: IYLRRIUNGGQRTN-GKCDKPGPSA-N
RETENTIONTIME: 3.923133
COMMENT: dataset=RIKEN_MONA; source_file=external_data/raw_libraries/RIKEN_MONA.xlsx; source_row=247; RT_sec=235.38798
Num Peaks: 14
96.080050 0.600000
156.084140 0.500000
168.081270 0.900000
196.112930 2.000000
197.107280 5.400000
198.105610 0.600000
208.111390 1.000000
209.109790 0.600000
222.128690 0.800000
225.137360 5.800000
226.140340 1.300000
339.150910 0.600000
339.205570 100.000000
339.259370 1.400000

NAME: Kopsinoline
SCANNUMBER: RIKEN_MONA_248
PRECURSORMZ: 355.201619
PRECURSORTYPE: [M+H]+
IONMODE: Positive
SPECTRUMTYPE: MS2
COLLISIONENERGY: 10 eV
FORMULA: C21H26N2O3
SMILES: COC(=O)[C@@H]1C[C@]23CCC[N@@+]4([O-])CC[C@]5(c6ccccc6N[C@@]15CC2)[C@@H]34
INCHI: InChI=1S/C21H26N2O3/c1-26-17(24)15-13-19-7-4-11-23(25)12-10-20(18(19)23)14-5-2-3-6-16(14)22-21(15,20)9-8-19/h2-3,5-6,15,18,22H,4,7-13H2,1H3/t15-,18+,19-,20-,21-,23+/m0/s1
INCHIKEY: KWXHCCIXBUPHTG-ICLMVOIRSA-N
RETENTIONTIME: 4.177267
COMMENT: dataset=RIKEN_MONA; source_file=external_data/raw_libraries/RIKEN_MONA.xlsx; source_row=248; RT_sec=250.636019999999
Num Peaks: 19
109.089410 2.400000
124.111700 36.000000
125.114110 4.200000
136.109710 1.400000
209.111650 0.600000
223.121690 0.600000
251.152300 1.300000
252.170030 0.900000
279.187290 0.600000
305.169620 0.900000
310.167180 2.800000
311.165710 0.600000
337.191710 2.200000
338.199400 16.600000
339.202030 4.000000
340.210940 0.800000
355.150940 0.700000
355.202480 100.000000
355.256590 2.300000

NAME: Koumidine
SCANNUMBER: RIKEN_MONA_249
PRECURSORMZ: 295.180490
PRECURSORTYPE: [M+H]+
IONMODE: Positive
SPECTRUMTYPE: MS2
COLLISIONENERGY: 10 eV
FORMULA: C19H22N2O
SMILES: C/C=C1\CN2[C@H]3C[C@H]1[C@H](CO)[C@@H]2Cc1c3[nH]c2ccccc12
INCHI: InChI=1S/C19H22N2O/c1-2-11-9-21-17-8-14-12-5-3-4-6-16(12)20-19(14)18(21)7-13(11)15(17)10-22/h2-6,13,15,17-18,20,22H,7-10H2,1H3/b11-2+/t13-,15+,17+,18+/m1/s1
INCHIKEY: VXTDUGOBAOLMED-CPEJFPLXSA-N
RETENTIONTIME: 3.575733
COMMENT: dataset=RIKEN_MONA; source_file=external_data/raw_libraries/RIKEN_MONA.xlsx; source_row=249; RT_sec=214.54398
Num Peaks: 57
108.080670 2.500000
120.082430 0.600000
122.096150 1.200000
129.070080 1.000000
130.066540 1.800000
131.073530 1.100000
132.081970 0.700000
134.098360 1.000000
138.091450 3.900000
143.074370 0.900000
144.080660 5.100000
145.084030 0.800000
146.095180 2.300000
156.080600 5.000000
157.087720 1.700000
158.095730 3.200000
164.108630 0.700000
167.075120 0.800000
168.076280 1.700000
168.085890 1.800000
170.095090 2.200000
180.082550 0.800000
181.083590 0.700000
193.086270 0.700000
194.099080 1.500000
195.104830 0.600000
204.081700 1.000000
205.087620 0.500000
206.094760 1.000000
207.097670 1.100000
207.106770 0.800000
208.111510 1.100000
217.089370 1.100000
218.092440 1.000000
218.101200 0.500000
219.099980 0.800000
220.112520 0.900000
222.126970 2.700000
230.095320 0.700000
231.100590 0.700000
231.114650 0.500000
232.113510 0.500000
234.112400 0.600000
234.128560 0.800000
235.126650 1.000000
247.120800 0.900000
248.141970 1.500000
260.135960 0.500000
260.144590 1.500000
261.136960 0.600000
263.158290 1.000000
265.171170 2.400000
277.170900 7.200000
278.153230 0.500000
278.166110 1.400000
295.180540 100.000000
295.229710 2.800000

NAME: Koumine
SCANNUMBER: RIKEN_MONA_250
PRECURSORMZ: 307.180490
PRECURSORTYPE: [M+H]+
IONMODE: Positive
SPECTRUMTYPE: MS2
COLLISIONENERGY: 10 eV
FORMULA: C20H22N2O
SMILES: C=C[C@@]12CN(C)[C@H]3C[C@]14C(=Nc1ccccc14)[C@@H]1C[C@@H]2[C@@H]3CO1
INCHI: InChI=1S/C20H22N2O/c1-3-19-11-22(2)16-9-20(19)13-6-4-5-7-15(13)21-18(20)17-8-14(19)12(16)10-23-17/h3-7,12,14,16-17H,1,8-11H2,2H3/t12-,14+,16-,17-,19-,20-/m0/s1
INCHIKEY: VTLYEMHGPMGUOT-XMHJOAAQSA-N
RETENTIONTIME: 3.584467
COMMENT: dataset=RIKEN_MONA; source_file=external_data/raw_libraries/RIKEN_MONA.xlsx; source_row=250; RT_sec=215.06802
Num Peaks: 24
167.070340 0.700000
168.080870 1.000000
176.108150 1.100000
180.072860 0.500000
180.082290 1.300000
181.088170 1.600000
194.098190 0.900000
196.076080 0.900000
197.085510 0.800000
204.082060 1.500000
205.084990 1.200000
206.094770 0.800000
217.088940 1.100000
218.097580 0.900000
219.104340 0.500000
220.114650 2.600000
230.098100 0.500000
231.107350 0.500000
238.121750 2.000000
246.124270 0.900000
277.167600 0.500000
307.122310 0.700000
307.181180 100.000000
307.232360 2.800000

NAME: L-Oxonoreleagnine
SCANNUMBER: RIKEN_MONA_251
PRECURSORMZ: 187.086589
PRECURSORTYPE: [M+H]+
IONMODE: Positive
SPECTRUMTYPE: MS2
COLLISIONENERGY: 10 eV
FORMULA: C11H10N2O
SMILES: OC1=NCCc2c1[nH]c1ccccc21
INCHI: InChI=1S/C11H10N2O/c14-11-10-8(5-6-12-11)7-3-1-2-4-9(7)13-10/h1-4,13H,5-6H2,(H,12,14)
INCHIKEY: FZHZQHNKCPJTNQ-UHFFFAOYSA-N
RETENTIONTIME: 5.526134
COMMENT: dataset=RIKEN_MONA; source_file=external_data/raw_libraries/RIKEN_MONA.xlsx; source_row=251; RT_sec=331.56804
Num Peaks: 27
115.054500 5.600000
116.048320 0.600000
117.057210 3.200000
118.061670 0.700000
127.050810 0.800000
130.065780 7.400000
131.065490 0.800000
131.070880 1.600000
132.081050 24.300000
133.079820 0.800000
133.088300 2.100000
142.064620 7.700000
143.070620 1.300000
144.078720 4.300000
145.074370 0.500000
145.085280 0.600000
157.077090 1.100000
157.084960 0.600000
158.059750 2.100000
158.084850 5.400000
159.092850 34.800000
160.095350 3.500000
169.064410 0.700000
169.076350 2.100000
170.061980 1.500000
187.087540 100.000000
187.126920 2.000000

NAME: Lariciresinol
SCANNUMBER: RIKEN_MONA_252
PRECURSORMZ: 359.150012
PRECURSORTYPE: [M-H]-
IONMODE: Negative
SPECTRUMTYPE: MS2
COLLISIONENERGY: 10 eV
FORMULA: C20H24O6
SMILES: COc1cc(CC2COC(c3ccc(O)c(OC)c3)C2CO)ccc1O
INCHI: InChI=1S/C20H24O6/c1-24-18-8-12(3-5-16(18)22)7-14-11-26-20(15(14)10-21)13-4-6-17(23)19(9-13)25-2/h3-6,8-9,14-15,20-23H,7,10-11H2,1-2H3
INCHIKEY: MHXCIKYXNYCMHY-UHFFFAOYSA-N
RETENTIONTIME: 4.957950
COMMENT: dataset=RIKEN_MONA; source_file=external_data/raw_libraries/RIKEN_MONA.xlsx; source_row=252; RT_sec=297.477
Num Peaks: 39
122.034840 1.500000
132.057370 1.200000
143.050520 0.700000
148.050380 0.800000
158.031720 0.900000
159.038020 2.500000
159.047710 1.600000
160.051240 25.600000
161.058560 15.600000
162.030880 0.800000
163.038330 0.700000
163.065890 0.700000
173.057880 3.200000
174.058060 0.900000
174.066500 1.500000
174.074070 1.300000
175.072680 14.400000
176.077510 4.900000
177.045500 0.900000
177.053770 1.300000
178.062120 13.100000
179.062670 1.200000
179.070470 1.500000
192.074080 7.700000
193.084150 3.000000
194.046950 0.900000
224.095950 0.700000
284.103360 1.400000
312.134060 0.800000
329.096500 0.800000
329.137540 100.000000
329.165950 1.800000
330.119140 1.500000
330.140960 20.200000
331.150730 4.000000
331.172150 0.700000
332.142940 0.800000
358.128420 0.700000
359.149200 2.400000

NAME: Laudanosine
SCANNUMBER: RIKEN_MONA_253
PRECURSORMZ: 358.201285
PRECURSORTYPE: [M+H]+
IONMODE: Positive
SPECTRUMTYPE: MS2
COLLISIONENERGY: 10 eV
FORMULA: C21H27NO4
SMILES: COc1ccc(CC2c3cc(OC)c(OC)cc3CCN2C)cc1OC
INCHI: InChI=1S/C21H27NO4/c1-22-9-8-15-12-20(25-4)21(26-5)13-16(15)17(22)10-14-6-7-18(23-2)19(11-14)24-3/h6-7,11-13,17H,8-10H2,1-5H3
INCHIKEY: KGPAYJZAMGEDIQ-UHFFFAOYSA-N
RETENTIONTIME: 4.256800
COMMENT: dataset=RIKEN_MONA; source_file=external_data/raw_libraries/RIKEN_MONA.xlsx; source_row=253; RT_sec=255.408
Num Peaks: 49
136.052600 0.600000
143.044850 0.600000
145.058200 0.600000
150.066680 0.900000
151.074510 18.600000
152.082020 1.000000
158.071900 4.700000
159.047580 0.500000
159.081220 2.100000
162.088700 1.000000
163.077380 0.500000
165.082660 1.400000
165.092300 2.600000
165.102070 1.000000
166.094150 0.500000
174.057790 0.900000
174.070250 3.800000
174.091310 0.800000
175.076900 0.700000
189.091670 17.600000
190.074630 1.200000
190.084120 3.700000
190.097320 1.700000
190.105270 0.600000
191.086040 1.800000
191.095430 1.300000
191.103070 1.000000
192.098630 0.900000
192.111340 0.600000
206.094280 0.800000
206.118100 80.400000
206.158740 0.600000
207.121020 12.500000
208.124040 0.800000
281.099180 0.600000
281.127410 0.800000
296.140140 2.300000
297.108980 0.900000
297.141200 0.600000
312.136410 0.800000
312.154720 1.000000
315.160220 0.700000
327.150510 1.800000
327.163850 4.400000
328.146730 0.600000
328.168000 0.700000
358.160800 0.600000
358.201080 100.000000
358.253810 2.300000

NAME: Licoricesaponin G2
SCANNUMBER: RIKEN_MONA_254
PRECURSORMZ: 839.405977
PRECURSORTYPE: [M+H]+
IONMODE: Positive
SPECTRUMTYPE: MS2
COLLISIONENERGY: 10 eV
FORMULA: C42H62O17
SMILES: C[C@]1(C(=O)O)CC[C@]2(C)CC[C@]3(C)C(=CC(=O)[C@@H]4[C@@]5(C)CC[C@H](O[C@@H]6O[C@H](C(=O)O)[C@@H](O)[C@H](O)[C@H]6O[C@@H]6O[C@H](C(=O)O)[C@@H](O)[C@H](O)[C@H]6O)[C@](C)(CO)[C@@H]5CC[C@]43C)[C@@H]2C1
INCHI: InChI=1S/C42H62O17/c1-37-11-12-38(2,36(54)55)16-19(37)18-15-20(44)31-39(3)9-8-22(40(4,17-43)21(39)7-10-42(31,6)41(18,5)14-13-37)56-35-30(26(48)25(47)29(58-35)33(52)53)59-34-27(49)23(45)24(46)28(57-34)32(50)51/h15,19,21-31,34-35,43,45-49H,7-14,16-17H2,1-6H3,(H,50,51)(H,52,53)(H,54,55)/t19-,21+,22-,23-,24-,25-,26-,27+,28-,29-,30+,31+,34-,35+,37+,38-,39-,40+,41+,42+/m0/s1
INCHIKEY: WBQVRPYEEYUEBQ-OJVDLISWSA-N
RETENTIONTIME: 6.355767
COMMENT: dataset=RIKEN_MONA; source_file=external_data/raw_libraries/RIKEN_MONA.xlsx; source_row=254; RT_sec=381.34602
Num Peaks: 32
141.016910 0.900000
159.026720 0.800000
159.036070 0.700000
177.039110 0.700000
189.169420 0.500000
439.315770 1.300000
439.330440 0.600000
451.320830 10.700000
452.320740 3.000000
452.341890 0.800000
453.332920 0.500000
469.330630 71.600000
470.333770 25.000000
471.342320 3.800000
487.341740 46.900000
488.345950 17.500000
489.322270 0.500000
489.355530 2.300000
627.345830 1.700000
628.358340 0.800000
645.352290 1.400000
645.369140 2.900000
645.397160 1.100000
646.365600 1.800000
646.394230 0.600000
663.375730 6.900000
664.357910 1.300000
664.377870 2.600000
665.397770 0.600000
821.397890 0.900000
822.399660 0.500000
839.407170 100.000000

NAME: Licoricesaponin H2
SCANNUMBER: RIKEN_MONA_255
PRECURSORMZ: 823.411062
PRECURSORTYPE: [M+H]+
IONMODE: Positive
SPECTRUMTYPE: MS2
COLLISIONENERGY: 10 eV
FORMULA: C42H62O16
SMILES: CC1(C(=O)O)CCC2(C)CCC3(C)C(=CC(=O)C4C5(C)CCC(OC6OC(C(=O)O)C(O)C(O)C6OC6OC(C(=O)O)C(O)C(O)C6O)C(C)(C)C5CCC43C)C2C1
INCHI: InChI=1S/C42H62O16/c1-37(2)21-8-11-42(7)31(20(43)16-18-19-17-39(4,36(53)54)13-12-38(19,3)14-15-41(18,42)6)40(21,5)10-9-22(37)55-35-30(26(47)25(46)29(57-35)33(51)52)58-34-27(48)23(44)24(45)28(56-34)32(49)50/h16,19,21-31,34-35,44-48H,8-15,17H2,1-7H3,(H,49,50)(H,51,52)(H,53,54)
INCHIKEY: LPLVUJXQOOQHMX-UHFFFAOYSA-N
RETENTIONTIME: 7.032750
COMMENT: dataset=RIKEN_MONA; source_file=external_data/raw_libraries/RIKEN_MONA.xlsx; source_row=255; RT_sec=421.965
Num Peaks: 19
189.166350 1.300000
235.170030 0.900000
301.220610 0.500000
407.335420 1.000000
435.326320 1.900000
453.297610 1.100000
453.337100 100.000000
454.297240 0.500000
454.341490 36.100000
455.340670 7.700000
471.347660 4.200000
472.346370 1.000000
472.366330 0.800000
647.377930 9.100000
647.401370 2.800000
648.371640 1.500000
648.397460 2.800000
823.354000 0.900000
823.413450 28.900000

NAME: Liquiritin
SCANNUMBER: RIKEN_MONA_256
PRECURSORMZ: 419.133659
PRECURSORTYPE: [M+H]+
IONMODE: Positive
SPECTRUMTYPE: MS2
COLLISIONENERGY: 10 eV
FORMULA: C21H22O9
SMILES: O=C1C[C@@H](c2ccc(O[C@@H]3O[C@H](CO)[C@@H](O)[C@H](O)[C@H]3O)cc2)Oc2cc(O)ccc21
INCHI: InChI=1S/C21H22O9/c22-9-17-18(25)19(26)20(27)21(30-17)28-12-4-1-10(2-5-12)15-8-14(24)13-6-3-11(23)7-16(13)29-15/h1-7,15,17-23,25-27H,8-9H2/t15-,17+,18+,19-,20+,21+/m0/s1
INCHIKEY: DEMKZLAVQYISIA-ZRWXNEIDSA-N
RETENTIONTIME: 4.083034
COMMENT: dataset=RIKEN_MONA; source_file=external_data/raw_libraries/RIKEN_MONA.xlsx; source_row=256; RT_sec=244.982039999999
Num Peaks: 26
85.027410 3.000000
115.036360 2.300000
125.873490 2.800000
128.042720 1.600000
137.022080 15.000000
137.032350 2.600000
138.026430 1.200000
142.908580 2.000000
145.047520 1.400000
147.018940 1.200000
147.043530 4.900000
147.049470 3.200000
148.048810 1.400000
183.084840 1.200000
194.081250 1.700000
211.072140 1.200000
211.082670 3.300000
256.479250 1.200000
257.081970 100.000000
257.370540 1.600000
258.079710 14.100000
258.091160 9.100000
259.085420 1.200000
280.533330 2.000000
419.117710 1.500000
419.162570 1.200000

NAME: Loganin
SCANNUMBER: RIKEN_MONA_257
PRECURSORMZ: 435.150800
PRECURSORTYPE: [M+FA-H]-
IONMODE: Negative
SPECTRUMTYPE: MS2
COLLISIONENERGY: 10 eV
FORMULA: C17H26O10
SMILES: COC(=O)C1=COC(OC2OC(CO)C(O)C(O)C2O)C2C1CC(O)C2C
INCHI: InChI=1S/C17H26O10/c1-6-9(19)3-7-8(15(23)24-2)5-25-16(11(6)7)27-17-14(22)13(21)12(20)10(4-18)26-17/h5-7,9-14,16-22H,3-4H2,1-2H3
INCHIKEY: AMBQHHVBBHTQBF-UHFFFAOYSA-N
RETENTIONTIME: 3.364367
COMMENT: dataset=RIKEN_MONA; source_file=external_data/raw_libraries/RIKEN_MONA.xlsx; source_row=257; RT_sec=201.86202
Num Peaks: 15
101.023960 6.600000
127.038120 6.000000
128.034590 0.800000
209.084780 1.600000
221.414320 0.700000
227.089390 33.300000
227.108350 0.900000
228.088330 1.900000
228.095780 2.200000
229.098310 1.500000
359.111660 0.900000
389.136470 3.700000
389.163020 1.000000
390.154080 0.800000
435.148860 100.000000

NAME: Luteolin
SCANNUMBER: RIKEN_MONA_258
PRECURSORMZ: 287.055015
PRECURSORTYPE: [M+H]+
IONMODE: Positive
SPECTRUMTYPE: MS2
COLLISIONENERGY: 10 eV
FORMULA: C15H10O6
SMILES: O=c1cc(-c2ccc(O)c(O)c2)oc2cc(O)cc(O)c12
INCHI: InChI=1S/C15H10O6/c16-8-4-11(19)15-12(20)6-13(21-14(15)5-8)7-1-2-9(17)10(18)3-7/h1-6,16-19H
INCHIKEY: IQPNAANSBPBGFQ-UHFFFAOYSA-N
RETENTIONTIME: 5.335383
COMMENT: dataset=RIKEN_MONA; source_file=external_data/raw_libraries/RIKEN_MONA.xlsx; source_row=258; RT_sec=320.12298
Num Peaks: 8
117.032560 1.700000
135.042180 2.500000
153.017290 9.500000
153.023560 3.100000
161.025250 1.500000
269.039150 0.500000
287.014070 0.700000
287.054660 100.000000

NAME: Luteolin-4'-O-glucoside
SCANNUMBER: RIKEN_MONA_259
PRECURSORMZ: 449.107838
PRECURSORTYPE: [M+H]+
IONMODE: Positive
SPECTRUMTYPE: MS2
COLLISIONENERGY: 10 eV
FORMULA: C21H20O11
SMILES: O=c1cc(-c2ccc(O[C@@H]3O[C@H](CO)[C@@H](O)[C@H](O)[C@H]3O)c(O)c2)oc2cc(O)cc(O)c12
INCHI: InChI=1S/C21H20O11/c22-7-16-18(27)19(28)20(29)21(32-16)31-13-2-1-8(3-10(13)24)14-6-12(26)17-11(25)4-9(23)5-15(17)30-14/h1-6,16,18-25,27-29H,7H2/t16-,18-,19+,20-,21-/m1/s1
INCHIKEY: UHNXUSWGOJMEFO-QNDFHXLGSA-N
RETENTIONTIME: 4.454216
COMMENT: dataset=RIKEN_MONA; source_file=external_data/raw_libraries/RIKEN_MONA.xlsx; source_row=259; RT_sec=267.25296
Num Peaks: 10
135.044950 0.500000
153.007580 0.600000
153.020770 1.500000
287.008880 0.600000
287.021420 0.900000
287.054660 100.000000
288.058560 15.900000
289.062500 2.200000
449.052640 0.900000
449.109650 31.500000

NAME: Luteolin-7-O-glucoside
SCANNUMBER: RIKEN_MONA_260
PRECURSORMZ: 449.107838
PRECURSORTYPE: [M+H]+
IONMODE: Positive
SPECTRUMTYPE: MS2
COLLISIONENERGY: 10 eV
FORMULA: C21H20O11
SMILES: O=c1cc(-c2ccc(O)c(O)c2)oc2cc(O[C@@H]3O[C@H](CO)[C@@H](O)[C@H](O)[C@H]3O)cc(O)c12
INCHI: InChI=1S/C21H20O11/c22-7-16-18(27)19(28)20(29)21(32-16)30-9-4-12(25)17-13(26)6-14(31-15(17)5-9)8-1-2-10(23)11(24)3-8/h1-6,16,18-25,27-29H,7H2/t16-,18-,19+,20-,21-/m1/s1
INCHIKEY: PEFNSGRTCBGNAN-QNDFHXLGSA-N
RETENTIONTIME: 4.089000
COMMENT: dataset=RIKEN_MONA; source_file=external_data/raw_libraries/RIKEN_MONA.xlsx; source_row=260; RT_sec=245.34
Num Peaks: 9
153.017380 1.000000
286.036320 0.500000
286.998230 0.700000
287.055240 100.000000
288.035060 0.900000
288.057950 15.700000
289.059840 3.000000
449.105530 15.200000
449.143400 0.500000

NAME: Luteolin-8-C-glucoside
SCANNUMBER: RIKEN_MONA_261
PRECURSORMZ: 449.107838
PRECURSORTYPE: [M+H]+
IONMODE: Positive
SPECTRUMTYPE: MS2
COLLISIONENERGY: 10 eV
FORMULA: C21H20O11
SMILES: O=c1cc(-c2ccc(O)c(O)c2)oc2c([C@@H]3O[C@H](CO)[C@@H](O)[C@H](O)[C@H]3O)c(O)cc(O)c12
INCHI: InChI=1S/C21H20O11/c22-6-14-17(28)18(29)19(30)21(32-14)16-11(26)4-10(25)15-12(27)5-13(31-20(15)16)7-1-2-8(23)9(24)3-7/h1-5,14,17-19,21-26,28-30H,6H2/t14-,17-,18+,19-,21+/m1/s1
INCHIKEY: PLAPMLGJVGLZOV-VPRICQMDSA-N
RETENTIONTIME: 3.715683
COMMENT: dataset=RIKEN_MONA; source_file=external_data/raw_libraries/RIKEN_MONA.xlsx; source_row=261; RT_sec=222.94098
Num Peaks: 71
109.027970 0.500000
163.038620 0.500000
165.016400 1.300000
217.049060 1.200000
227.052960 0.600000
229.051770 0.600000
243.033290 1.400000
259.062440 1.500000
271.056550 1.300000
272.057890 0.500000
272.066590 0.500000
273.073730 0.900000
287.050480 1.800000
289.068660 0.600000
299.053740 20.400000
299.089320 0.600000
300.030120 0.600000
300.058010 10.600000
301.064850 1.200000
302.070740 1.300000
311.057830 6.800000
312.057430 0.700000
313.057310 1.200000
313.071810 3.700000
314.068850 0.800000
324.056920 1.000000
327.037410 1.600000
327.051790 1.000000
329.025670 0.600000
329.066010 31.500000
330.049190 1.200000
330.067440 5.600000
330.078770 2.600000
331.063720 1.300000
331.092070 0.500000
339.038090 0.900000
339.055630 0.900000
339.082890 2.400000
339.094210 0.800000
340.094510 2.000000
341.074100 2.300000
341.106540 1.100000
343.089750 0.600000
353.062590 6.800000
353.079160 1.300000
354.071290 2.000000
359.070160 0.900000
367.073090 2.800000
367.085750 3.200000
371.079960 1.200000
373.188450 0.500000
383.075010 8.600000
384.075010 2.000000
395.064480 2.200000
395.080140 3.500000
396.078550 1.400000
413.040710 0.500000
413.067050 1.900000
413.088320 10.400000
414.074040 0.900000
414.092440 2.400000
415.084840 1.100000
415.108670 1.000000
431.068420 1.600000
431.095730 16.900000
432.045100 0.600000
432.079620 0.800000
432.108950 4.300000
449.018950 0.500000
449.046140 1.100000
449.105740 100.000000

NAME: Luteolinidin
SCANNUMBER: RIKEN_MONA_262
PRECURSORMZ: 271.060100
PRECURSORTYPE: [M+H]+
IONMODE: Positive
SPECTRUMTYPE: MS2
COLLISIONENERGY: 10 eV
FORMULA: C15H10O5
SMILES: [O-]c1cc(-c2ccc3c(O)cc(O)cc3[o+]2)ccc1O
INCHI: InChI=1S/C15H10O5/c16-9-6-12(18)10-2-4-14(20-15(10)7-9)8-1-3-11(17)13(19)5-8/h1-7H,(H3-,16,17,18,19)
INCHIKEY: GDNIGMNXEKGFIP-UHFFFAOYSA-N
RETENTIONTIME: 3.598017
COMMENT: dataset=RIKEN_MONA; source_file=external_data/raw_libraries/RIKEN_MONA.xlsx; source_row=262; RT_sec=215.88102
Num Peaks: 13
115.053670 1.100000
141.070310 2.000000
150.029390 0.700000
159.042430 1.100000
173.063260 0.600000
183.038800 1.100000
187.039550 2.800000
197.060290 1.100000
225.053500 0.600000
225.064410 0.900000
229.050810 1.100000
243.063520 0.600000
271.060210 100.000000

NAME: Lyalosidic acid
SCANNUMBER: RIKEN_MONA_263
PRECURSORMZ: 513.186757
PRECURSORTYPE: [M+H]+
IONMODE: Positive
SPECTRUMTYPE: MS2
COLLISIONENERGY: 10 eV
FORMULA: C26H28N2O9
SMILES: C=C[C@H]1[C@H](O[C@@H]2O[C@H](CO)[C@@H](O)[C@H](O)[C@H]2O)OC=C(C(=O)O)[C@@H]1Cc1nccc2c1[nH]c1ccccc12
INCHI: InChI=1S/C26H28N2O9/c1-2-12-15(9-18-20-14(7-8-27-18)13-5-3-4-6-17(13)28-20)16(24(33)34)11-35-25(12)37-26-23(32)22(31)21(30)19(10-29)36-26/h2-8,11-12,15,19,21-23,25-26,28-32H,1,9-10H2,(H,33,34)/t12-,15-,19-,21-,22+,23-,25+,26+/m1/s1
INCHIKEY: UZLBTLIRYSYTRG-FMKZDVGKSA-N
RETENTIONTIME: 3.717917
COMMENT: dataset=RIKEN_MONA; source_file=external_data/raw_libraries/RIKEN_MONA.xlsx; source_row=263; RT_sec=223.07502
Num Peaks: 34
182.083590 6.200000
183.089600 2.600000
207.091290 0.800000
208.098630 0.700000
219.091520 1.000000
220.096620 0.700000
235.079680 1.000000
235.089970 1.900000
237.099210 1.300000
247.088520 2.800000
261.058350 0.500000
261.070310 0.600000
263.049010 0.500000
263.081540 23.100000
264.086400 5.900000
265.088100 0.700000
279.151120 0.800000
281.091890 3.600000
282.101100 1.100000
289.136470 0.800000
305.116330 0.600000
305.129850 1.200000
307.144530 10.500000
308.147310 1.900000
315.107940 0.800000
333.124450 12.500000
334.128050 2.700000
351.133850 19.400000
352.135560 5.600000
353.133970 0.600000
469.193660 1.300000
513.121030 1.400000
513.186770 100.000000
513.251530 1.600000

NAME: Lycoctonine
SCANNUMBER: RIKEN_MONA_264
PRECURSORMZ: 468.295579
PRECURSORTYPE: [M+H]+
IONMODE: Positive
SPECTRUMTYPE: MS2
COLLISIONENERGY: 10 eV
FORMULA: C25H41NO7
SMILES: CCN1C[C@]2(CO)CC[C@H](OC)[C@@]34[C@@H]5C[C@@H]6[C@@H](OC)C[C@@](O)([C@H]5[C@H]6OC)[C@@](O)([C@@H](OC)[C@H]23)[C@H]14
INCHI: InChI=1S/C25H41NO7/c1-6-26-11-22(12-27)8-7-16(31-3)24-14-9-13-15(30-2)10-23(28,17(14)18(13)32-4)25(29,21(24)26)20(33-5)19(22)24/h13-21,27-29H,6-12H2,1-5H3/t13-,14-,15+,16+,17-,18+,19-,20+,21-,22+,23-,24+,25-/m1/s1
INCHIKEY: YOTUXHIWBVZAJQ-FJYZNWNSSA-N
RETENTIONTIME: 3.674817
COMMENT: dataset=RIKEN_MONA; source_file=external_data/raw_libraries/RIKEN_MONA.xlsx; source_row=264; RT_sec=220.48902
Num Peaks: 19
126.091970 1.200000
140.108250 1.000000
326.215240 0.500000
344.224610 0.700000
354.210050 0.800000
358.239590 1.300000
372.219210 1.800000
376.247530 0.600000
386.224150 0.600000
386.237820 0.700000
390.267460 1.000000
404.236390 1.300000
404.249540 1.900000
405.246060 0.800000
418.259310 0.700000
436.270480 2.800000
437.276150 1.000000
468.297790 100.000000
468.361600 2.800000

NAME: Madecassoside
SCANNUMBER: RIKEN_MONA_265
PRECURSORMZ: 975.515921
PRECURSORTYPE: [M+H]+
IONMODE: Positive
SPECTRUMTYPE: MS2
COLLISIONENERGY: 10 eV
FORMULA: C48H78O20
SMILES: C[C@@H]1[C@H]2C3=CC[C@@H]4[C@@]5(C)C[C@@H](O)[C@H](O)[C@@](C)(CO)[C@@H]5[C@H](O)C[C@@]4(C)[C@@]3(C)CC[C@@]2(C(=O)O[C@@H]2O[C@H](CO[C@@H]3O[C@H](CO)[C@@H](O[C@@H]4O[C@@H](C)[C@H](O)[C@@H](O)[C@H]4O)[C@H](O)[C@H]3O)[C@@H](O)[C@H](O)[C@H]2O)CC[C@H]1C
INCHI: InChI=1S/C48H78O20/c1-19-10-11-48(13-12-46(6)22(28(48)20(19)2)8-9-27-44(4)14-24(52)39(61)45(5,18-50)38(44)23(51)15-47(27,46)7)43(62)68-42-35(59)32(56)30(54)26(66-42)17-63-40-36(60)33(57)37(25(16-49)65-40)67-41-34(58)31(55)29(53)21(3)64-41/h8,19-21,23-42,49-61H,9-18H2,1-7H3/t19-,20+,21+,23-,24-,25-,26-,27-,28+,29+,30-,31-,32+,33-,34-,35-,36-,37-,38-,39+,40-,41+,42+,44-,45+,46+,47-,48+/m1/s1
INCHIKEY: BNMGUJRJUUDLHW-CIZDPPTDSA-N
RETENTIONTIME: 4.880217
COMMENT: dataset=RIKEN_MONA; source_file=external_data/raw_libraries/RIKEN_MONA.xlsx; source_row=265; RT_sec=292.81302
Num Peaks: 100
129.049590 8.300000
141.082930 7.600000
145.109050 5.900000
147.055530 6.200000
147.063110 6.900000
161.092910 6.200000
165.068240 6.200000
172.068940 8.600000
177.124130 9.300000
187.147660 11.400000
189.133510 9.700000
191.143970 6.900000
192.178770 7.200000
201.162980 7.600000
210.809400 7.200000
215.147770 7.200000
217.160430 6.200000
218.157200 6.900000
225.099980 7.200000
235.160170 9.300000
235.169690 10.300000
237.160030 6.600000
248.172810 5.900000
249.185520 15.500000
255.086760 21.000000
256.091160 7.200000
261.184390 6.200000
274.100650 6.200000
291.107600 9.700000
309.103150 6.200000
309.120790 21.700000
312.276310 6.900000
325.117070 7.900000
393.273960 5.900000
393.330870 7.600000
394.301420 6.900000
396.307560 9.300000
405.317110 10.700000
407.338130 6.200000
421.305480 16.600000
422.306700 6.600000
423.333440 7.900000
424.341280 7.900000
425.344090 6.900000
433.302920 22.100000
434.326140 6.200000
435.160520 6.200000
439.309050 15.200000
439.320070 6.600000
440.324680 5.900000
441.331420 8.300000
442.326290 7.200000
449.299770 6.200000
451.298890 21.700000
451.314090 66.900000
452.328310 7.200000
452.344760 8.300000
453.321320 7.900000
469.293000 8.300000
469.334990 26.200000
470.329620 16.200000
471.154210 26.900000
487.338320 100.000000
487.357670 30.700000
488.285980 5.900000
488.337040 19.000000
488.363160 6.900000
489.341550 9.300000
522.324280 7.200000
533.535220 8.300000
560.359800 6.200000
561.357120 5.900000
579.359990 13.400000
596.357360 6.900000
597.385250 11.700000
614.360720 6.600000
633.415410 34.500000
634.403020 6.900000
649.365050 8.300000
650.408200 6.900000
651.413210 11.000000
652.391540 6.200000
652.411500 8.300000
795.454650 25.500000
811.460510 6.200000
811.498840 6.200000
812.444700 12.800000
813.445190 14.100000
814.500850 14.500000
829.489870 6.200000
881.210940 6.200000
939.512080 5.900000
940.531130 6.900000
957.503850 6.600000
958.510620 9.000000
959.566280 8.300000
973.680600 6.600000
974.485350 6.600000
975.513550 79.700000
975.545230 26.900000

NAME: Magnolol
SCANNUMBER: RIKEN_MONA_266
PRECURSORMZ: 267.137956
PRECURSORTYPE: [M+H]+
IONMODE: Positive
SPECTRUMTYPE: MS2
COLLISIONENERGY: 10 eV
FORMULA: C18H18O2
SMILES: C=CCc1ccc(O)c(-c2cc(CC=C)ccc2O)c1
INCHI: InChI=1S/C18H18O2/c1-3-5-13-7-9-17(19)15(11-13)16-12-14(6-4-2)8-10-18(16)20/h3-4,7-12,19-20H,1-2,5-6H2
INCHIKEY: VVOAZFWZEDHOOU-UHFFFAOYSA-N
RETENTIONTIME: 9.205833
COMMENT: dataset=RIKEN_MONA; source_file=external_data/raw_libraries/RIKEN_MONA.xlsx; source_row=266; RT_sec=552.34998
Num Peaks: 81
89.787510 2.600000
119.075360 2.000000
121.028630 2.500000
127.051250 2.100000
143.087490 2.200000
144.053360 1.800000
152.057510 3.800000
153.070050 2.700000
154.073000 1.800000
156.090880 1.800000
165.052250 1.700000
166.078370 1.800000
169.066240 1.800000
177.083680 1.700000
177.573580 1.600000
178.078900 12.200000
179.085800 2.600000
181.062090 2.000000
183.068860 1.900000
183.089690 1.800000
190.061630 1.800000
190.072040 2.300000
191.084490 1.800000
193.103900 1.800000
194.068880 3.000000
194.077320 1.600000
196.077870 2.100000
196.089650 1.600000
197.052950 6.900000
197.060610 23.900000
197.107410 2.600000
202.083210 3.600000
205.103670 3.900000
206.070880 1.800000
206.120590 1.600000
207.044240 2.200000
207.079760 11.500000
207.677810 2.100000
209.094090 1.800000
210.068710 15.500000
211.074580 24.100000
211.090580 3.800000
211.118040 1.800000
212.075090 2.300000
215.079360 2.000000
219.084430 3.900000
219.397460 1.700000
221.087660 3.800000
221.129520 1.900000
223.077800 2.800000
223.099660 1.800000
224.081470 1.600000
225.092940 13.000000
226.062550 1.700000
226.086820 3.200000
226.100950 25.800000
227.102910 2.000000
228.030520 1.800000
232.102460 2.400000
237.090790 1.900000
237.106380 2.800000
238.095210 6.800000
239.102630 6.500000
240.112290 2.900000
240.137650 1.800000
241.118420 2.500000
247.107030 6.500000
249.127930 3.800000
250.091250 1.600000
250.100080 1.700000
260.936920 1.800000
265.112240 4.100000
265.128170 2.400000
266.021420 1.900000
266.098180 1.900000
266.121580 3.600000
266.131770 4.700000
266.142520 1.600000
267.091490 1.800000
267.114620 2.800000
267.137510 100.000000

NAME: Malvidin-3-O-glucoside
SCANNUMBER: RIKEN_MONA_267
PRECURSORMZ: 491.118951
PRECURSORTYPE: [M-2H]-
IONMODE: Negative
SPECTRUMTYPE: MS2
COLLISIONENERGY: 10 eV
FORMULA: [C23H25O12]+
SMILES: COc1cc(-c2[o+]c3cc(O)cc(O)c3cc2OC2OC(CO)C(O)C(O)C2O)cc(OC)c1O
INCHI: InChI=1S/C23H24O12/c1-31-14-3-9(4-15(32-2)18(14)27)22-16(7-11-12(26)5-10(25)6-13(11)33-22)34-23-21(30)20(29)19(28)17(8-24)35-23/h3-7,17,19-21,23-24,28-30H,8H2,1-2H3,(H2-,25,26,27)/p+1
INCHIKEY: PXUQTDZNOHRWLI-UHFFFAOYSA-O
RETENTIONTIME: 3.213417
COMMENT: dataset=RIKEN_MONA; source_file=external_data/raw_libraries/RIKEN_MONA.xlsx; source_row=267; RT_sec=192.80502
Num Peaks: 37
71.014480 2.200000
144.792420 3.600000
192.027300 2.800000
227.043720 2.200000
242.024250 3.100000
243.026930 1.800000
254.012560 2.000000
256.996980 4.400000
257.034480 2.100000
270.013950 9.900000
271.010250 2.400000
271.027710 4.700000
286.045070 3.300000
287.050720 2.800000
299.019900 10.200000
299.043400 2.400000
300.013240 3.500000
311.043460 1.900000
312.017700 2.000000
313.019170 3.700000
313.034970 18.700000
313.046050 7.700000
314.035130 15.400000
314.050840 5.100000
317.071720 4.400000
328.053560 23.800000
329.063540 100.000000
330.069400 8.800000
330.084440 2.400000
332.076540 3.800000
333.070500 2.100000
343.095250 1.900000
375.478550 2.400000
383.068150 3.600000
401.075930 3.100000
444.695430 4.800000
491.118040 37.300000

NAME: Maritimetin-6-O-glucoside
SCANNUMBER: RIKEN_MONA_268
PRECURSORMZ: 449.107838
PRECURSORTYPE: [M+H]+
IONMODE: Positive
SPECTRUMTYPE: MS2
COLLISIONENERGY: 10 eV
FORMULA: C21H20O11
SMILES: O=C1/C(=C/c2ccc(O)c(O)c2)Oc2c1ccc(O[C@@H]1O[C@H](CO)[C@@H](O)[C@H](O)[C@H]1O)c2O
INCHI: InChI=1S/C21H20O11/c22-7-14-16(26)18(28)19(29)21(32-14)31-12-4-2-9-15(25)13(30-20(9)17(12)27)6-8-1-3-10(23)11(24)5-8/h1-6,14,16,18-19,21-24,26-29H,7H2/b13-6-/t14-,16-,18+,19-,21-/m1/s1
INCHIKEY: SYRURBPRFQUYQS-RHEJLWEFSA-N
RETENTIONTIME: 3.985750
COMMENT: dataset=RIKEN_MONA; source_file=external_data/raw_libraries/RIKEN_MONA.xlsx; source_row=268; RT_sec=239.144999999999
Num Peaks: 35
85.028500 0.600000
105.018850 0.800000
123.006580 2.500000
123.011960 0.700000
137.022800 0.600000
153.016600 7.800000
161.021160 3.600000
161.031810 1.400000
171.009290 0.900000
185.057070 0.500000
192.034900 0.600000
197.058180 0.700000
218.044490 0.500000
231.063050 3.000000
231.077560 0.800000
231.089250 0.600000
232.065140 1.900000
241.037020 0.500000
241.054230 3.800000
245.049840 0.600000
259.056730 1.100000
260.051730 0.800000
268.996550 0.900000
269.044710 2.500000
276.318940 0.800000
285.045750 2.600000
287.018340 2.000000
287.054170 100.000000
287.608460 0.600000
288.059570 16.600000
289.050870 0.900000
289.060880 1.000000
289.073820 0.500000
449.067630 1.000000
449.108830 16.100000

NAME: Maslinic acid
SCANNUMBER: RIKEN_MONA_269
PRECURSORMZ: 473.362536
PRECURSORTYPE: [M+H]+
IONMODE: Positive
SPECTRUMTYPE: MS2
COLLISIONENERGY: 10 eV
FORMULA: C30H48O4
SMILES: CC1(C)CC[C@]2(C(=O)O)CC[C@]3(C)C(=CC[C@@H]4[C@@]5(C)C[C@@H](O)[C@H](O)C(C)(C)[C@@H]5CC[C@]43C)[C@@H]2C1
INCHI: InChI=1S/C30H48O4/c1-25(2)12-14-30(24(33)34)15-13-28(6)18(19(30)16-25)8-9-22-27(5)17-20(31)23(32)26(3,4)21(27)10-11-29(22,28)7/h8,19-23,31-32H,9-17H2,1-7H3,(H,33,34)/t19-,20+,21-,22+,23-,27-,28+,29+,30-/m0/s1
INCHIKEY: MDZKJHQSJHYOHJ-LLICELPBSA-N
RETENTIONTIME: 9.771733
COMMENT: dataset=RIKEN_MONA; source_file=external_data/raw_libraries/RIKEN_MONA.xlsx; source_row=269; RT_sec=586.303979999999
Num Peaks: 70
71.069630 7.700000
107.082490 6.400000
121.104650 8.700000
123.105260 7.700000
133.105150 15.100000
135.116500 6.400000
137.132340 5.500000
147.115880 7.400000
147.121460 5.800000
149.128630 5.800000
161.135330 19.600000
163.147930 14.100000
164.155030 7.700000
173.127980 6.100000
175.134430 7.400000
175.147630 6.400000
177.164720 14.500000
178.158540 8.700000
185.133410 6.400000
187.148540 12.900000
189.162800 10.300000
189.168700 21.200000
191.183560 11.900000
192.193160 6.400000
193.160870 11.600000
201.168980 5.800000
203.168780 9.000000
203.179000 26.400000
203.190460 10.300000
204.180510 7.700000
204.191300 7.100000
205.153900 6.100000
205.167360 11.900000
205.197190 11.600000
206.154480 6.400000
207.172910 19.600000
207.185870 11.900000
208.180570 13.200000
216.178790 6.800000
222.194050 7.400000
231.175320 9.000000
233.192490 6.800000
247.160460 5.500000
267.172730 6.400000
324.280580 7.700000
349.284330 8.000000
375.467220 7.100000
381.342620 7.100000
391.331820 6.800000
392.339080 18.300000
409.330630 19.000000
409.347720 100.000000
409.359470 28.300000
410.345340 17.000000
410.361330 29.900000
410.378910 5.500000
411.328610 6.100000
411.368590 15.800000
412.348940 9.300000
427.363310 12.200000
437.328860 37.600000
437.351990 14.100000
438.345060 5.800000
439.320470 5.800000
439.351380 6.400000
439.369450 7.100000
455.337130 11.600000
455.364350 14.500000
473.345920 32.200000
473.368070 61.700000

NAME: Matairesinol
SCANNUMBER: RIKEN_MONA_270
PRECURSORMZ: 359.148915
PRECURSORTYPE: [M+H]+
IONMODE: Positive
SPECTRUMTYPE: MS2
COLLISIONENERGY: 10 eV
FORMULA: C20H22O6
SMILES: COc1cc(C[C@H]2COC(=O)[C@@H]2Cc2ccc(O)c(OC)c2)ccc1O
INCHI: InChI=1S/C20H22O6/c1-24-18-9-12(3-5-16(18)21)7-14-11-26-20(23)15(14)8-13-4-6-17(22)19(10-13)25-2/h3-6,9-10,14-15,21-22H,7-8,11H2,1-2H3/t14-,15+/m0/s1
INCHIKEY: MATGKVZWFZHCLI-LSDHHAIUSA-N
RETENTIONTIME: 5.957433
COMMENT: dataset=RIKEN_MONA; source_file=external_data/raw_libraries/RIKEN_MONA.xlsx; source_row=270; RT_sec=357.44598
Num Peaks: 70
81.071040 0.700000
91.052800 0.600000
94.041450 0.600000
103.053600 1.200000
121.064880 0.600000
122.037380 3.500000
123.038620 0.600000
131.049580 6.200000
132.051360 1.200000
137.026170 0.500000
137.059490 100.000000
138.062010 8.300000
138.071110 1.300000
145.062620 1.700000
147.040850 1.100000
148.047300 0.900000
149.059420 1.200000
151.044270 1.000000
157.065430 0.800000
161.057750 0.700000
163.059950 0.500000
163.072920 8.600000
163.083720 1.300000
164.081800 1.100000
165.052840 1.300000
165.082530 0.500000
175.076490 1.000000
175.083860 0.900000
177.052410 1.400000
177.060650 0.800000
178.058700 0.900000
189.093220 0.700000
191.074250 1.600000
202.079390 0.600000
203.081940 1.700000
203.093540 1.000000
220.090320 0.700000
221.081120 1.300000
222.080490 0.900000
223.097000 3.400000
231.078160 5.600000
235.099820 0.500000
245.092850 0.700000
248.089540 0.600000
253.081590 0.500000
259.066100 0.700000
259.073970 1.700000
263.100220 1.600000
263.110050 1.800000
264.108340 1.000000
276.068150 0.700000
291.101530 8.000000
292.089900 0.700000
292.108700 2.000000
293.107480 0.700000
297.140260 0.600000
305.112030 2.600000
305.138700 1.100000
306.121640 1.100000
323.130280 8.400000
324.134610 1.600000
325.132200 0.600000
341.094790 0.800000
341.140500 27.600000
342.127080 1.000000
342.145510 6.700000
343.152650 0.500000
358.141690 4.200000
359.110290 0.500000
359.151580 28.800000

NAME: Matrine
SCANNUMBER: RIKEN_MONA_271
PRECURSORMZ: 249.196140
PRECURSORTYPE: [M+H]+
IONMODE: Positive
SPECTRUMTYPE: MS2
COLLISIONENERGY: 10 eV
FORMULA: C15H24N2O
SMILES: O=C1CCC[C@@H]2[C@H]3CCCN4CCC[C@@H](CN12)[C@@H]34
INCHI: InChI=1S/C15H24N2O/c18-14-7-1-6-13-12-5-3-9-16-8-2-4-11(15(12)16)10-17(13)14/h11-13,15H,1-10H2/t11-,12+,13+,15-/m0/s1
INCHIKEY: ZSBXGIUJOOQZMP-JLNYLFASSA-N
RETENTIONTIME: 2.256967
COMMENT: dataset=RIKEN_MONA; source_file=external_data/raw_libraries/RIKEN_MONA.xlsx; source_row=271; RT_sec=135.418019999999
Num Peaks: 14
110.092280 0.900000
112.076630 0.900000
148.112980 4.100000
149.114620 0.800000
150.124500 1.000000
150.133900 0.700000
176.108700 0.700000
176.143630 0.600000
190.125120 0.700000
218.157520 0.700000
247.187000 1.500000
249.154220 0.700000
249.196930 100.000000
249.240780 0.900000

NAME: Mesaconitine
SCANNUMBER: RIKEN_MONA_272
PRECURSORMZ: 632.306538
PRECURSORTYPE: [M+H]+
IONMODE: Positive
SPECTRUMTYPE: MS2
COLLISIONENERGY: 10 eV
FORMULA: C33H45NO11
SMILES: COC[C@]12CN(C)[C@H]3[C@@H]4[C@H](OC)[C@H]1[C@@]3([C@@H](OC)C[C@H]2O)[C@@H]1C[C@]2(O)[C@@H](OC)[C@H](O)[C@@]4(OC(C)=O)[C@H]1[C@H]2OC(=O)c1ccccc1
INCHI: InChI=1S/C33H45NO11/c1-16(35)45-33-21-18(13-31(39,28(43-6)26(33)37)27(21)44-29(38)17-10-8-7-9-11-17)32-20(41-4)12-19(36)30(15-40-3)14-34(2)25(32)22(33)23(42-5)24(30)32/h7-11,18-28,36-37,39H,12-15H2,1-6H3/t18-,19-,20+,21-,22+,23+,24-,25+,26+,27-,28+,30+,31-,32+,33-/m1/s1
INCHIKEY: XUHJBXVYNBQQBD-DIMAMZENSA-N
RETENTIONTIME: 5.611533
COMMENT: dataset=RIKEN_MONA; source_file=external_data/raw_libraries/RIKEN_MONA.xlsx; source_row=272; RT_sec=336.69198
Num Peaks: 16
105.034190 0.800000
354.170290 1.600000
508.237060 0.600000
512.268860 1.600000
522.267640 0.700000
523.255680 0.500000
540.248410 1.000000
540.265690 0.800000
572.277040 6.300000
572.296810 5.000000
573.290530 3.900000
574.307370 0.500000
632.212520 0.900000
632.234500 0.500000
632.308720 100.000000
632.383970 2.100000

NAME: Mitragynine
SCANNUMBER: RIKEN_MONA_273
PRECURSORMZ: 399.227834
PRECURSORTYPE: [M+H]+
IONMODE: Positive
SPECTRUMTYPE: MS2
COLLISIONENERGY: 10 eV
FORMULA: C23H30N2O4
SMILES: CC[C@@H]1CN2CCc3c([nH]c4cccc(OC)c34)[C@@H]2C[C@@H]1/C(=C\OC)C(=O)OC
INCHI: InChI=1S/C23H30N2O4/c1-5-14-12-25-10-9-15-21-18(7-6-8-20(21)28-3)24-22(15)19(25)11-16(14)17(13-27-2)23(26)29-4/h6-8,13-14,16,19,24H,5,9-12H2,1-4H3/b17-13+/t14-,16+,19+/m1/s1
INCHIKEY: LELBFTMXCIIKKX-QVRQZEMUSA-N
RETENTIONTIME: 5.539417
COMMENT: dataset=RIKEN_MONA; source_file=external_data/raw_libraries/RIKEN_MONA.xlsx; source_row=273; RT_sec=332.36502
Num Peaks: 20
110.096660 3.100000
129.055770 1.400000
144.079190 0.900000
159.068710 2.400000
168.101700 1.000000
174.092090 17.500000
175.096160 2.700000
186.088680 0.600000
194.118770 0.700000
200.105990 1.600000
226.145000 8.400000
227.144270 0.900000
238.145070 7.300000
239.146910 1.500000
296.132750 0.500000
328.149750 0.700000
367.202210 2.500000
368.203030 0.500000
399.229160 100.000000
399.287020 2.600000

NAME: Mitraphylline
SCANNUMBER: RIKEN_MONA_274
PRECURSORMZ: 369.180884
PRECURSORTYPE: [M+H]+
IONMODE: Positive
SPECTRUMTYPE: MS2
COLLISIONENERGY: 10 eV
FORMULA: C21H24N2O4
SMILES: COC(=O)C1=CO[C@@H](C)[C@H]2CN3CC[C@]4(C(O)=Nc5ccccc54)[C@@H]3C[C@H]12
INCHI: InChI=1S/C21H24N2O4/c1-12-14-10-23-8-7-21(16-5-3-4-6-17(16)22-20(21)25)18(23)9-13(14)15(11-27-12)19(24)26-2/h3-6,11-14,18H,7-10H2,1-2H3,(H,22,25)/t12-,13-,14+,18-,21+/m0/s1
INCHIKEY: JMIAZDVHNCCPDM-DAFCLMLCSA-N
RETENTIONTIME: 4.368650
COMMENT: dataset=RIKEN_MONA; source_file=external_data/raw_libraries/RIKEN_MONA.xlsx; source_row=274; RT_sec=262.118999999999
Num Peaks: 25
108.081310 0.800000
115.054600 0.600000
124.038070 1.100000
132.044650 1.400000
132.079700 3.800000
133.086470 0.600000
142.064380 3.600000
150.091060 1.000000
158.062900 0.900000
160.075270 33.200000
160.112080 0.800000
161.078060 3.600000
178.086290 5.100000
187.084960 1.200000
201.102480 3.500000
202.102860 0.600000
210.112950 2.000000
241.132220 1.100000
267.150210 0.600000
309.159150 8.500000
310.162230 1.700000
337.154790 9.700000
338.157960 2.800000
369.181240 100.000000
369.236300 3.200000

NAME: Myricetin
SCANNUMBER: RIKEN_MONA_275
PRECURSORMZ: 319.044844
PRECURSORTYPE: [M+H]+
IONMODE: Positive
SPECTRUMTYPE: MS2
COLLISIONENERGY: 10 eV
FORMULA: C15H10O8
SMILES: O=c1c(O)c(-c2cc(O)c(O)c(O)c2)oc2cc(O)cc(O)c12
INCHI: InChI=1S/C15H10O8/c16-6-3-7(17)11-10(4-6)23-15(14(22)13(11)21)5-1-8(18)12(20)9(19)2-5/h1-4,16-20,22H
INCHIKEY: IKMDFBPHZNJCSN-UHFFFAOYSA-N
RETENTIONTIME: 4.672667
COMMENT: dataset=RIKEN_MONA; source_file=external_data/raw_libraries/RIKEN_MONA.xlsx; source_row=275; RT_sec=280.360019999999
Num Peaks: 50
79.017330 0.500000
97.020550 0.500000
109.029580 0.700000
121.033330 0.600000
135.044370 0.700000
137.025340 1.600000
153.014880 9.400000
153.029050 0.700000
153.056810 0.600000
154.015490 0.500000
158.033660 0.600000
165.012700 0.900000
165.018910 1.400000
166.021580 1.400000
171.055650 0.600000
179.031600 3.500000
189.060010 0.900000
189.868970 0.500000
190.018810 0.600000
199.042940 0.500000
199.147050 0.600000
203.032090 2.000000
209.039930 0.900000
217.048420 2.000000
217.058410 2.700000
218.062550 1.100000
233.041490 0.900000
244.036610 0.600000
245.029750 1.100000
245.042590 5.200000
245.058790 0.800000
246.030040 0.900000
250.144030 0.800000
255.032910 0.500000
263.119870 0.600000
273.036130 3.200000
273.050450 1.300000
274.042540 0.800000
275.050200 0.500000
275.457310 0.800000
283.031650 0.900000
290.031680 1.100000
290.047270 1.900000
291.049500 0.800000
291.062990 0.500000
301.040040 1.700000
317.035220 1.000000
318.039150 0.700000
319.006100 1.200000
319.046510 100.000000

NAME: Myricetin-3-O-galactoside
SCANNUMBER: RIKEN_MONA_276
PRECURSORMZ: 479.083114
PRECURSORTYPE: [M-H]-
IONMODE: Negative
SPECTRUMTYPE: MS2
COLLISIONENERGY: 10 eV
FORMULA: C21H20O13
SMILES: O=c1c(OC2OC(CO)C(O)C(O)C2O)c(-c2cc(O)c(O)c(O)c2)oc2cc(O)cc(O)c12
INCHI: InChI=1S/C21H20O13/c22-5-12-15(28)17(30)18(31)21(33-12)34-20-16(29)13-8(24)3-7(23)4-11(13)32-19(20)6-1-9(25)14(27)10(26)2-6/h1-4,12,15,17-18,21-28,30-31H,5H2
INCHIKEY: FOHXFLPXBUAOJM-UHFFFAOYSA-N
RETENTIONTIME: 3.637100
COMMENT: dataset=RIKEN_MONA; source_file=external_data/raw_libraries/RIKEN_MONA.xlsx; source_row=276; RT_sec=218.226
Num Peaks: 18
56.838830 6.700000
151.009170 7.300000
178.986770 6.700000
180.005290 5.600000
198.999660 10.600000
215.040080 7.800000
242.011510 8.100000
242.021190 10.400000
270.014740 5.600000
271.012180 5.900000
271.025760 5.900000
287.023440 17.400000
316.007840 9.200000
316.024810 58.000000
317.025630 19.300000
317.033750 8.700000
318.030090 6.200000
479.089320 100.000000

NAME: Myricetin-3-O-xyloside
SCANNUMBER: RIKEN_MONA_277
PRECURSORMZ: 451.087103
PRECURSORTYPE: [M+H]+
IONMODE: Positive
SPECTRUMTYPE: MS2
COLLISIONENERGY: 10 eV
FORMULA: C20H18O12
SMILES: O=c1c(O[C@@H]2OC[C@@H](O)[C@H](O)[C@H]2O)c(-c2cc(O)c(O)c(O)c2)oc2cc(O)cc(O)c12
INCHI: InChI=1S/C20H18O12/c21-7-3-8(22)13-12(4-7)31-18(6-1-9(23)14(26)10(24)2-6)19(16(13)28)32-20-17(29)15(27)11(25)5-30-20/h1-4,11,15,17,20-27,29H,5H2/t11-,15+,17-,20+/m1/s1
INCHIKEY: SBEOEJNITMVWLK-CFSKSFDZSA-N
RETENTIONTIME: 3.897100
COMMENT: dataset=RIKEN_MONA; source_file=external_data/raw_libraries/RIKEN_MONA.xlsx; source_row=277; RT_sec=233.826
Num Peaks: 36
73.026490 2.800000
73.031590 2.300000
147.011020 3.000000
153.018890 4.400000
165.002330 1.300000
187.031310 2.100000
196.260850 2.300000
217.058270 2.000000
233.033620 1.700000
234.621720 3.400000
245.045350 5.100000
246.060030 2.100000
255.030230 4.500000
259.025120 1.700000
262.048920 2.100000
273.040470 6.800000
274.052340 1.900000
287.054630 2.000000
288.053250 1.300000
296.018740 1.200000
301.010380 1.700000
317.042240 2.600000
318.968810 2.200000
318.982730 1.400000
319.043790 100.000000
320.053010 9.600000
321.039950 1.200000
332.013520 1.200000
332.039830 1.400000
344.055360 1.300000
372.943360 1.400000
372.960240 3.800000
373.061710 1.200000
412.990630 3.400000
451.069240 4.800000
451.100590 7.200000

NAME: N-Acetylsolasodine
SCANNUMBER: RIKEN_MONA_278
PRECURSORMZ: 456.347221
PRECURSORTYPE: [M+H]+
IONMODE: Positive
SPECTRUMTYPE: MS2
COLLISIONENERGY: 10 eV
FORMULA: C29H45NO3
SMILES: CC(=O)N1CC(C)CCC12OC1CC3C4CC=C5CC(O)CCC5(C)C4CCC3(C)C1C2C
INCHI: InChI=1S/C29H45NO3/c1-17-8-13-29(30(16-17)19(3)31)18(2)26-25(33-29)15-24-22-7-6-20-14-21(32)9-11-27(20,4)23(22)10-12-28(24,26)5/h6,17-18,21-26,32H,7-16H2,1-5H3
INCHIKEY: JXAZKNVJWYDQJY-UHFFFAOYSA-N
RETENTIONTIME: 7.362000
COMMENT: dataset=RIKEN_MONA; source_file=external_data/raw_libraries/RIKEN_MONA.xlsx; source_row=278; RT_sec=441.72
Num Peaks: 29
109.105870 3.200000
112.115160 5.800000
114.089170 22.300000
119.085050 4.900000
131.091710 3.200000
144.141710 4.000000
157.100130 3.700000
157.111400 4.600000
159.119580 5.700000
159.124540 3.100000
163.110380 3.700000
166.011060 4.300000
169.102230 4.500000
175.112560 4.900000
186.140150 3.100000
189.165340 6.100000
197.119230 2.800000
242.173170 3.200000
253.192080 43.600000
253.215390 3.200000
254.199170 5.700000
254.216080 4.100000
255.209670 2.900000
271.205600 38.900000
272.219330 3.100000
332.789730 4.800000
422.325840 3.500000
456.320250 13.700000
456.344970 100.000000

NAME: NP-000002(10)
SCANNUMBER: RIKEN_MONA_279
PRECURSORMZ: 595.165747
PRECURSORTYPE: [M+H]+
IONMODE: Positive
SPECTRUMTYPE: MS2
COLLISIONENERGY: 10 eV
FORMULA: C27H30O15
SMILES: O=c1cc(-c2ccc(O)cc2)oc2c(C3OC(CO)C(O)C(O)C3O)c(O)c(C3OC(CO)C(O)C(O)C3O)c(O)c12
INCHI: InChI=1S/C27H30O15/c28-6-12-17(32)21(36)23(38)26(41-12)15-19(34)14-10(31)5-11(8-1-3-9(30)4-2-8)40-25(14)16(20(15)35)27-24(39)22(37)18(33)13(7-29)42-27/h1-5,12-13,17-18,21-24,26-30,32-39H,6-7H2
INCHIKEY: FIAAVMJLAGNUKW-UHFFFAOYSA-N
RETENTIONTIME: 3.302967
COMMENT: dataset=RIKEN_MONA; source_file=external_data/raw_libraries/RIKEN_MONA.xlsx; source_row=279; RT_sec=198.17802
Num Peaks: 221
121.089220 0.700000
203.038120 0.700000
241.050830 0.800000
269.044190 1.000000
294.051270 2.300000
294.987880 1.500000
295.037750 1.200000
295.051570 4.800000
295.062380 6.300000
296.062290 4.500000
296.076870 1.000000
297.097020 1.000000
307.065340 4.000000
308.062260 1.900000
308.075100 1.600000
309.055210 1.000000
309.067990 1.100000
313.075620 1.000000
314.075560 1.900000
317.094880 0.700000
319.061100 1.500000
321.070740 3.900000
321.091190 2.100000
321.484440 1.600000
322.077820 0.700000
325.040860 2.400000
325.062930 9.800000
325.076900 11.500000
326.072200 3.500000
328.079740 1.100000
328.090910 1.100000
333.083370 0.700000
335.055240 0.800000
335.083680 1.600000
335.105620 0.800000
337.068240 21.700000
337.080750 7.000000
339.092010 0.900000
347.051880 1.000000
347.093230 1.500000
347.112880 0.700000
348.079900 0.900000
348.294740 0.700000
348.780880 1.300000
349.058750 1.700000
349.074860 4.800000
350.069520 1.700000
350.085170 1.800000
350.111910 0.700000
351.050480 0.900000
351.100430 1.300000
352.072080 0.700000
352.086980 1.300000
355.067140 2.400000
355.076020 4.800000
356.093260 2.300000
361.054930 1.900000
361.068180 2.200000
361.101100 1.100000
361.120700 2.000000
361.288270 1.000000
361.842860 0.700000
363.083400 3.200000
364.101590 0.700000
364.823150 0.700000
365.105440 1.900000
365.120120 0.700000
371.072810 1.000000
373.064150 2.700000
373.548310 0.700000
375.046480 1.000000
375.092290 3.000000
376.074550 1.000000
376.096370 0.700000
377.099700 1.500000
377.114290 0.900000
379.020940 0.700000
379.044130 1.700000
379.079470 7.500000
379.096010 5.900000
379.253780 0.900000
380.078610 3.900000
380.091980 1.600000
381.108280 1.100000
382.059570 1.000000
382.075650 0.700000
384.983060 1.000000
385.064820 0.900000
387.077910 1.300000
388.074950 1.200000
391.054870 0.900000
391.071560 5.300000
391.086000 5.900000
391.103120 0.900000
392.073090 2.100000
392.088290 0.700000
393.089720 0.800000
395.061100 0.900000
399.072420 0.700000
401.084050 0.800000
401.102970 0.800000
403.021390 0.700000
403.070220 8.700000
409.062350 0.800000
409.091190 8.100000
409.116520 3.300000
409.127870 1.100000
410.090300 2.900000
411.115940 1.200000
415.061830 0.800000
415.112520 0.700000
417.091490 1.600000
418.112580 0.900000
420.119050 1.200000
420.131680 0.800000
421.033690 0.700000
421.060420 1.300000
421.085330 6.700000
421.106320 1.600000
421.987670 0.700000
427.058560 1.900000
427.094820 2.400000
427.111080 2.300000
428.086980 2.200000
428.116880 1.200000
429.103210 1.100000
433.082030 1.300000
433.110470 1.000000
437.810550 0.700000
439.062230 0.800000
439.084230 2.000000
439.103550 7.100000
439.123290 1.600000
440.049590 0.700000
440.111910 0.800000
445.082920 1.300000
445.097750 1.000000
446.092900 1.400000
451.093630 1.400000
457.071660 1.400000
457.104860 13.100000
457.122740 16.200000
458.073120 1.500000
458.103180 5.100000
458.127590 4.100000
458.141940 1.200000
459.108370 1.200000
459.134400 1.600000
460.112610 0.800000
463.111150 1.700000
469.061220 1.000000
471.115660 0.800000
471.137910 1.000000
473.886510 1.200000
475.090030 1.000000
475.113740 5.400000
475.133970 6.900000
476.110570 1.700000
476.138520 1.800000
477.112580 0.700000
481.013670 1.100000
481.076540 2.800000
481.106410 8.600000
481.152680 0.700000
481.438960 0.700000
481.664340 0.800000
482.051760 0.800000
482.121610 1.500000
483.057740 0.700000
483.130490 1.200000
483.144440 1.200000
487.113680 2.800000
494.120510 0.800000
495.138850 0.700000
499.117550 2.500000
499.135070 1.500000
500.107330 1.400000
501.117740 1.200000
505.105190 2.500000
511.088530 0.800000
511.111600 0.800000
511.135590 4.400000
512.106930 0.800000
512.125370 0.700000
512.148250 0.900000
523.111630 2.400000
523.125550 9.200000
524.142150 1.200000
529.120120 3.500000
529.144710 1.200000
530.111510 1.900000
530.133240 1.000000
541.134580 3.700000
541.933290 1.000000
542.144470 2.100000
543.136960 2.100000
543.158450 1.200000
559.119930 1.700000
559.157230 6.500000
559.194030 1.000000
560.144170 2.800000
560.543520 0.700000
561.100710 1.500000
561.325810 0.800000
576.197510 0.700000
577.117310 2.800000
577.139340 12.100000
577.170720 12.600000
578.119870 1.500000
578.141480 0.800000
578.166140 1.800000
578.189450 1.500000
579.179690 4.000000
579.202510 0.800000
580.155820 1.400000
584.637080 0.700000
585.924010 0.700000
589.818600 0.700000
595.161440 100.000000
595.271300 0.700000
595.321110 1.000000

NAME: NP-000004(11)
SCANNUMBER: RIKEN_MONA_280
PRECURSORMZ: 565.155182
PRECURSORTYPE: [M+H]+
IONMODE: Positive
SPECTRUMTYPE: MS2
COLLISIONENERGY: 10 eV
FORMULA: C26H28O14
SMILES: O=c1cc(-c2ccc(O)cc2)oc2c(C3O[C@@H](CO)[C@H](O)[C@H]3O)c(O)c(C3O[C@H](CO)[C@@H](O)[C@H](O)[C@H]3O)c(O)c12
INCHI: InChI=1S/C26H28O14/c27-6-12-17(31)21(35)23(37)25(39-12)15-19(33)14-10(30)5-11(8-1-3-9(29)4-2-8)38-24(14)16(20(15)34)26-22(36)18(32)13(7-28)40-26/h1-5,12-13,17-18,21-23,25-29,31-37H,6-7H2/t12-,13+,17-,18+,21+,22-,23-,25?,26?/m1/s1
INCHIKEY: TUIJPUWSXVFWSH-FBMRRHFKSA-N
RETENTIONTIME: 3.550550
COMMENT: dataset=RIKEN_MONA; source_file=external_data/raw_libraries/RIKEN_MONA.xlsx; source_row=280; RT_sec=213.033
Num Peaks: 190
103.040120 0.600000
121.028180 1.200000
192.062450 1.200000
203.031770 0.700000
214.789520 0.700000
223.187420 0.500000
227.030060 0.700000
234.610140 0.600000
237.037400 0.700000
255.024640 0.600000
268.082490 0.500000
283.061830 0.800000
286.579320 0.700000
294.049680 1.300000
295.061890 8.800000
296.060300 1.500000
301.078490 0.800000
307.031430 0.900000
307.053860 1.300000
307.074280 3.300000
308.068880 2.600000
308.081210 0.800000
309.066350 0.600000
309.084930 0.600000
314.059170 0.600000
321.072080 4.700000
322.084200 1.800000
324.083620 0.900000
325.058530 2.900000
325.068570 2.900000
325.080690 6.100000
326.084410 1.100000
329.072910 0.700000
333.062100 0.500000
333.086400 0.900000
334.082670 2.500000
335.082120 0.500000
336.081090 0.600000
337.059940 3.400000
337.074040 4.900000
337.090090 0.700000
338.065920 1.000000
338.078670 1.300000
338.090760 0.600000
339.058200 0.600000
339.078830 1.100000
340.085110 0.900000
345.074370 0.800000
345.098600 0.600000
345.691380 0.800000
347.107420 0.500000
349.069950 5.000000
349.084590 4.900000
350.069920 1.400000
351.086030 4.200000
354.065950 0.500000
354.311340 0.500000
355.070890 2.300000
355.870420 0.600000
356.030490 0.700000
356.086180 0.600000
359.090420 1.500000
361.071960 3.400000
361.105130 1.300000
362.082400 1.900000
363.073300 4.500000
363.087550 4.200000
364.088990 1.100000
365.086640 0.700000
367.071470 0.800000
367.088810 0.500000
367.195400 0.700000
368.086120 0.600000
373.049770 0.600000
373.070800 2.100000
373.088500 0.600000
373.110410 1.700000
375.071750 1.500000
376.082580 0.600000
377.056430 1.200000
377.072390 0.500000
377.109190 0.600000
379.044770 0.700000
379.072750 9.600000
379.092650 5.200000
380.041260 0.600000
380.078460 3.100000
380.093320 1.600000
381.081360 1.400000
382.516690 1.000000
385.076140 0.800000
387.084720 1.200000
387.107030 0.800000
391.071870 6.500000
391.086880 9.600000
392.080750 4.400000
393.099950 0.700000
394.094540 0.600000
397.086580 4.500000
398.100130 1.000000
399.074190 0.700000
399.089600 1.600000
401.121700 0.600000
402.096680 0.800000
403.059600 0.800000
403.085110 1.500000
404.092380 0.500000
405.063050 0.700000
405.536220 0.600000
407.070530 1.400000
407.109440 0.700000
409.059940 1.000000
409.089660 19.000000
409.102080 8.700000
410.087460 4.100000
411.094940 1.700000
411.497960 0.500000
415.080440 3.100000
415.112610 1.700000
416.072690 1.300000
417.035060 0.500000
421.074550 2.100000
421.107540 0.800000
427.095890 18.100000
427.115360 5.100000
427.173830 0.600000
428.082180 0.800000
428.106380 6.400000
428.129430 2.500000
429.102540 4.000000
433.091890 2.800000
434.104980 2.500000
439.100560 2.700000
445.070190 0.800000
445.101750 6.600000
446.499760 0.600000
447.135990 0.600000
451.110470 2.900000
451.127720 0.500000
452.102390 0.800000
457.102970 5.400000
457.117890 3.300000
458.086880 1.800000
458.130100 0.900000
459.097630 0.800000
463.078490 0.600000
463.101750 4.000000
463.125950 1.100000
464.089170 0.600000
464.116550 1.500000
465.063170 0.500000
469.108700 1.100000
470.141480 1.100000
475.103880 3.100000
475.122440 1.400000
476.117680 1.400000
476.149050 0.600000
481.086180 1.300000
481.115110 7.100000
482.069980 0.600000
482.108950 2.800000
482.139530 1.000000
483.119840 1.100000
484.125270 1.100000
493.015230 0.600000
493.099760 2.600000
493.114380 3.900000
495.107540 0.500000
499.108030 1.300000
499.124330 3.000000
499.139010 2.600000
500.089320 0.600000
500.114750 0.500000
500.135440 2.900000
510.985930 0.700000
511.063690 0.700000
511.124970 16.700000
512.127930 4.700000
529.134700 14.300000
529.159000 2.200000
530.114440 1.300000
530.139890 4.200000
531.144900 1.200000
547.146360 23.300000
548.071840 0.700000
548.141600 6.800000
549.148320 1.100000
549.244810 0.500000
565.104680 0.800000
565.155210 100.000000

NAME: NP-000062(6)
SCANNUMBER: RIKEN_MONA_281
PRECURSORMZ: 565.155182
PRECURSORTYPE: [M+H]+
IONMODE: Positive
SPECTRUMTYPE: MS2
COLLISIONENERGY: 10 eV
FORMULA: C26H28O14
SMILES: O=c1cc(-c2ccc(O)cc2)oc2c(C3O[C@H](CO)[C@@H](O)[C@H](O)[C@H]3O)c(O)c(C3O[C@@H](CO)[C@H](O)[C@H]3O)c(O)c12
INCHI: InChI=1S/C26H28O14/c27-6-12-17(31)21(35)23(37)26(40-12)16-20(34)15(25-22(36)18(32)13(7-28)39-25)19(33)14-10(30)5-11(38-24(14)16)8-1-3-9(29)4-2-8/h1-5,12-13,17-18,21-23,25-29,31-37H,6-7H2/t12-,13+,17-,18+,21+,22-,23-,25?,26?/m1/s1
INCHIKEY: DRLZZQRQMWQRLZ-FBMRRHFKSA-N
RETENTIONTIME: 3.638600
COMMENT: dataset=RIKEN_MONA; source_file=external_data/raw_libraries/RIKEN_MONA.xlsx; source_row=281; RT_sec=218.316
Num Peaks: 177
204.017940 0.600000
229.049930 0.500000
245.436660 0.700000
246.588850 0.700000
281.368560 0.500000
283.060460 1.000000
294.055480 0.900000
295.026520 0.500000
295.062070 8.400000
295.073270 2.600000
296.061770 1.400000
296.075590 0.800000
297.071900 0.600000
307.064390 4.700000
308.053830 1.000000
308.066220 0.700000
309.073520 2.800000
309.087740 0.700000
309.983700 0.800000
311.063050 0.500000
317.090450 0.900000
320.051270 0.800000
321.071440 2.400000
322.081450 1.400000
323.066380 0.900000
323.097780 1.000000
325.071440 15.200000
326.069790 2.000000
326.083010 2.800000
327.071560 0.800000
329.044860 0.700000
333.052220 0.700000
333.075960 0.500000
335.090330 0.700000
335.101900 0.800000
336.060970 0.700000
337.039670 0.900000
337.068730 12.400000
338.078490 2.700000
339.135410 0.700000
346.333890 0.500000
347.094150 3.900000
349.056640 1.000000
349.074460 7.500000
350.071010 2.900000
351.039460 0.500000
351.082820 3.700000
351.096800 1.500000
352.097630 1.000000
354.062440 0.600000
355.073060 1.100000
355.082240 2.400000
356.086120 0.900000
356.103000 0.600000
357.079740 1.000000
359.067600 0.600000
359.099210 0.600000
360.173830 0.600000
360.775790 0.700000
361.069520 4.000000
363.094790 1.000000
365.085630 0.700000
365.102570 1.200000
366.071260 1.200000
366.103730 0.900000
368.057010 0.500000
373.078030 1.600000
374.149380 0.800000
375.085910 3.800000
376.093350 1.100000
377.105590 0.900000
379.053890 1.600000
379.080410 22.200000
380.080600 4.800000
380.093990 2.000000
380.111300 0.500000
381.082790 0.800000
381.109530 0.500000
385.095370 1.100000
386.094880 0.600000
388.098970 0.800000
390.101840 0.600000
391.077640 5.900000
391.096340 1.500000
391.210240 0.600000
392.083190 1.200000
393.060490 1.100000
393.083100 0.900000
393.102360 0.800000
395.062040 0.700000
397.051700 0.900000
397.091580 12.700000
398.082030 1.700000
398.096740 3.900000
401.110140 0.700000
403.081730 4.300000
403.107480 0.600000
404.037810 0.900000
405.075070 1.000000
405.098050 3.500000
409.081540 3.100000
409.094060 4.900000
409.110230 0.800000
410.089360 1.900000
411.096770 0.700000
415.094270 3.100000
416.083830 0.800000
416.105410 1.500000
418.111910 0.700000
419.118100 1.500000
421.094640 4.000000
422.096740 4.100000
427.073820 1.600000
427.104980 7.800000
428.100860 2.200000
428.245210 0.600000
430.097380 0.600000
433.029140 0.500000
433.074620 1.700000
433.097260 8.200000
434.095060 0.900000
434.116700 0.700000
439.101590 1.500000
439.117950 1.700000
441.092900 1.000000
445.090420 5.000000
445.116300 6.900000
446.089140 1.000000
446.117830 2.700000
446.134090 0.800000
447.103000 1.100000
448.122680 1.200000
451.091000 3.600000
451.111480 2.000000
452.096100 1.600000
454.333830 0.500000
457.088130 3.300000
457.112490 10.700000
463.090970 0.900000
463.113430 1.100000
469.089660 1.100000
469.109250 4.400000
469.129180 3.000000
470.118500 2.600000
475.108520 3.100000
476.080810 0.600000
476.117370 0.800000
481.105350 7.700000
481.122960 7.000000
482.088650 0.800000
482.109680 2.500000
493.110050 2.800000
493.121640 6.300000
494.112370 2.800000
495.127720 0.700000
499.118840 8.800000
500.128230 2.400000
501.136110 0.700000
511.081330 0.800000
511.120000 9.400000
511.141850 2.100000
512.111880 2.900000
512.135250 0.800000
512.540280 0.600000
529.132200 12.200000
530.134340 3.100000
532.136290 0.600000
547.100280 0.700000
547.142150 30.400000
548.086300 0.700000
548.117800 0.900000
548.141110 3.900000
548.159120 4.900000
549.171570 1.200000
565.050110 1.000000
565.095760 0.900000
565.154910 100.000000

NAME: NP-000286(7)
SCANNUMBER: RIKEN_MONA_282
PRECURSORMZ: 449.107838
PRECURSORTYPE: [M+H]+
IONMODE: Positive
SPECTRUMTYPE: MS2
COLLISIONENERGY: 10 eV
FORMULA: C21H20O11
SMILES: O=c1cc(-c2ccc(O)c(O)c2)oc2cc(O)c([C@@H]3O[C@H](CO)[C@@H](O)[C@H](O)[C@H]3O)c(O)c12
INCHI: InChI=1S/C21H20O11/c22-6-14-17(27)19(29)20(30)21(32-14)16-11(26)5-13-15(18(16)28)10(25)4-12(31-13)7-1-2-8(23)9(24)3-7/h1-5,14,17,19-24,26-30H,6H2/t14-,17-,19+,20-,21+/m1/s1
INCHIKEY: ODBRNZZJSYPIDI-VJXVFPJBSA-N
RETENTIONTIME: 3.589417
COMMENT: dataset=RIKEN_MONA; source_file=external_data/raw_libraries/RIKEN_MONA.xlsx; source_row=282; RT_sec=215.36502
Num Peaks: 164
109.029000 1.500000
135.046130 0.900000
137.016860 1.300000
137.024900 5.200000
138.019200 0.900000
149.022920 1.400000
161.025760 2.200000
163.037870 2.300000
164.040530 1.300000
165.010680 1.100000
165.019420 1.100000
166.026460 1.500000
174.504260 1.100000
177.014070 2.800000
179.998960 1.000000
180.443150 1.100000
187.042280 1.500000
188.042680 1.700000
192.038790 1.800000
204.029510 0.900000
213.055650 1.400000
216.990220 1.500000
222.534880 0.900000
229.033910 1.200000
241.686940 1.700000
242.242070 2.100000
243.024480 0.900000
245.047790 1.400000
248.249600 0.900000
249.999070 1.000000
254.040220 1.300000
256.062130 1.100000
258.054320 1.200000
259.898380 1.000000
270.030330 1.600000
270.043670 1.600000
270.063900 2.300000
271.034030 0.900000
272.064640 1.100000
272.079990 1.600000
272.537660 2.900000
283.056730 3.100000
283.067990 5.300000
284.012760 0.900000
284.071290 4.500000
284.532230 1.200000
285.079250 2.800000
287.053380 5.600000
288.044560 1.500000
288.070160 1.300000
291.348140 1.600000
293.171840 1.300000
295.642180 1.000000
297.073790 2.200000
297.084410 2.500000
298.049620 1.500000
298.076020 2.800000
298.090700 2.300000
299.019500 1.400000
299.054020 94.100000
299.225920 0.900000
300.034390 3.400000
300.059600 29.500000
301.033420 1.600000
301.057280 11.100000
301.072270 3.600000
301.373660 0.900000
302.072080 1.500000
311.014070 0.900000
311.052430 5.900000
311.070530 3.800000
311.083560 1.000000
311.376680 1.100000
312.048580 1.100000
312.060390 4.900000
313.041050 0.900000
324.056120 3.000000
324.069700 2.100000
324.704220 3.000000
325.064360 19.600000
325.091160 1.000000
326.068730 2.300000
327.049410 1.000000
327.079250 1.000000
328.051540 3.300000
329.040340 5.200000
329.066190 47.400000
330.055050 3.900000
330.073850 29.000000
331.052400 1.000000
331.062810 1.100000
331.079380 4.200000
332.079770 1.400000
336.053280 1.500000
338.079680 1.000000
339.078770 5.500000
339.093410 7.100000
339.124820 0.900000
340.065980 2.000000
340.094850 7.300000
342.090450 0.900000
350.075350 2.300000
352.258210 1.000000
353.066770 34.100000
353.087620 3.300000
354.043270 1.000000
354.069400 12.200000
355.067750 2.100000
355.080050 2.600000
356.065730 1.100000
365.058230 2.400000
365.077120 0.900000
366.063930 3.300000
366.078670 1.800000
367.046570 0.900000
367.083100 2.900000
367.099610 1.200000
368.078550 2.800000
368.297700 1.000000
370.074550 1.000000
376.050630 1.200000
376.265350 1.900000
377.058410 2.600000
377.070220 7.700000
378.067140 2.800000
380.053070 1.900000
382.060730 2.900000
383.057130 2.800000
383.074860 10.500000
383.231020 0.900000
384.071140 6.900000
384.089840 7.400000
385.085420 1.800000
386.271510 1.200000
395.071660 11.200000
395.098790 2.400000
396.060180 1.200000
396.080570 11.900000
397.083710 1.000000
397.096950 1.400000
399.062500 1.100000
409.991360 1.200000
413.046540 1.200000
413.075380 10.500000
413.109190 1.100000
414.087490 3.500000
414.106410 4.200000
415.087950 1.800000
416.063720 0.900000
423.785000 1.000000
429.090030 1.600000
431.089660 14.400000
431.105870 14.900000
431.115780 5.600000
432.070650 2.400000
432.094090 8.100000
432.155760 1.000000
433.115630 7.500000
433.155850 1.900000
433.934570 0.900000
434.122740 1.000000
448.096370 2.000000
449.067080 1.200000
449.106480 100.000000

NAME: NP-006989(12)
SCANNUMBER: RIKEN_MONA_283
PRECURSORMZ: 611.160661
PRECURSORTYPE: [M+H]+
IONMODE: Positive
SPECTRUMTYPE: MS2
COLLISIONENERGY: 10 eV
FORMULA: C27H30O16
SMILES: O=c1cc(-c2ccc(O)c(O)c2)oc2c(C3OC(CO)C(O)C(O)C3O)c(O)c([C@@H]3O[C@H](CO)[C@@H](O)[C@H](O)[C@H]3O)c(O)c12
INCHI: InChI=1S/C27H30O16/c28-5-12-17(33)21(37)23(39)26(42-12)15-19(35)14-10(32)4-11(7-1-2-8(30)9(31)3-7)41-25(14)16(20(15)36)27-24(40)22(38)18(34)13(6-29)43-27/h1-4,12-13,17-18,21-24,26-31,33-40H,5-6H2/t12-,13?,17-,18?,21+,22?,23-,24?,26+,27?/m1/s1
INCHIKEY: ZLPSOQFIIQIIAX-FCSQLNSJSA-N
RETENTIONTIME: 3.100167
COMMENT: dataset=RIKEN_MONA; source_file=external_data/raw_libraries/RIKEN_MONA.xlsx; source_row=283; RT_sec=186.01002
Num Peaks: 240
137.024870 0.600000
218.853330 0.900000
267.071990 0.600000
283.038640 0.600000
283.063110 1.200000
302.073700 0.900000
309.033450 0.800000
310.049840 0.600000
311.037870 1.300000
311.057190 1.400000
311.070890 0.600000
312.060150 0.600000
312.080690 0.600000
313.055080 0.600000
314.065800 0.700000
323.014220 0.800000
323.023500 1.300000
323.046810 2.700000
323.056820 9.100000
324.051880 1.500000
324.065340 1.100000
325.059630 2.600000
329.078770 1.300000
330.068390 0.900000
334.093440 0.600000
335.053250 0.900000
337.014650 0.500000
337.073000 2.900000
338.037570 0.600000
339.042570 0.500000
340.066310 0.600000
341.064120 20.900000
342.064850 3.800000
343.073270 1.600000
343.085140 0.600000
347.046230 0.700000
349.066130 0.600000
349.086980 0.600000
351.068210 1.000000
351.089140 1.400000
352.058810 1.000000
352.099180 0.900000
353.026890 0.900000
353.053100 2.300000
353.068660 11.900000
354.060700 2.500000
359.098630 0.700000
360.071080 0.600000
363.085940 3.500000
364.078120 0.600000
365.054930 3.800000
365.070190 7.500000
366.061280 2.400000
366.606600 0.500000
367.057860 1.100000
367.085660 2.800000
367.116330 0.700000
368.099430 0.500000
368.126770 0.800000
369.055940 1.500000
370.089510 0.500000
371.073210 3.600000
371.089810 2.400000
372.083650 1.000000
372.094700 1.100000
377.049410 1.400000
377.081240 1.900000
377.107640 0.900000
378.070620 1.000000
379.061650 1.100000
379.076900 1.500000
379.096370 1.300000
381.097780 3.800000
381.114590 0.600000
384.083100 0.600000
387.074310 0.600000
389.061980 1.000000
389.757660 0.700000
391.057010 1.100000
391.071810 1.700000
391.087100 1.400000
392.089900 0.600000
393.064970 1.200000
394.035280 0.500000
394.059970 0.500000
395.058140 3.800000
395.075380 16.500000
396.022190 0.600000
396.063960 1.900000
396.077790 1.200000
404.076450 1.000000
404.940640 0.500000
407.058870 2.100000
407.072330 8.800000
408.081700 2.800000
410.087340 1.100000
410.104060 0.500000
413.077760 1.200000
417.043730 0.800000
417.108030 0.500000
419.072850 8.800000
419.092960 3.600000
420.075840 0.800000
420.088990 1.000000
421.081730 0.600000
425.077330 7.700000
425.103000 5.100000
425.989560 0.700000
426.074310 1.600000
426.100460 1.800000
431.067630 0.600000
431.084930 1.500000
432.084080 1.500000
435.066310 1.100000
437.079830 8.200000
437.102840 3.900000
438.071530 1.800000
438.094850 2.500000
443.057460 1.000000
443.082090 7.200000
443.105770 9.200000
443.119570 2.700000
444.081390 1.300000
444.109860 1.700000
444.990540 0.600000
445.056580 0.500000
445.087770 0.800000
446.098880 0.600000
449.078740 2.900000
452.077480 1.000000
453.088590 0.700000
455.047700 0.600000
455.087250 5.100000
455.103850 5.900000
456.068660 0.800000
456.095700 0.500000
456.111240 1.000000
456.129120 0.700000
461.091490 2.000000
461.118770 1.100000
462.078490 1.900000
462.094330 0.800000
463.094760 0.900000
463.259310 0.600000
467.075990 0.500000
467.097350 0.900000
471.112030 1.700000
472.102420 0.600000
472.115540 0.600000
473.055690 0.600000
473.073430 1.100000
473.108250 23.700000
473.230770 0.800000
474.086790 1.700000
474.113250 6.200000
474.131160 3.100000
475.097530 0.500000
479.090670 1.500000
479.123140 0.800000
485.099910 1.200000
489.112370 0.800000
490.128810 0.500000
491.053680 0.600000
491.091340 1.400000
491.117460 11.400000
491.148930 0.600000
492.102940 1.000000
492.125790 1.000000
492.142850 0.600000
497.061220 1.000000
497.095920 6.000000
497.130160 1.700000
498.124820 2.500000
503.071410 1.800000
503.093200 0.600000
503.129090 0.600000
504.084660 0.800000
509.105710 1.200000
510.106960 0.600000
510.647980 0.500000
515.092040 0.500000
515.122800 5.400000
516.113220 2.000000
516.133540 2.000000
517.130070 0.900000
521.115970 1.000000
522.104430 1.000000
523.102050 0.700000
527.113890 4.400000
527.135620 1.700000
528.111760 2.300000
528.125610 0.900000
528.143920 0.500000
533.296140 0.600000
539.088130 1.100000
539.113590 3.400000
539.144900 1.400000
540.037050 0.600000
540.106450 1.500000
540.129760 1.600000
544.141110 1.000000
545.109740 1.200000
545.132810 4.200000
545.154790 1.700000
546.126460 1.100000
548.116150 0.600000
557.122440 11.600000
557.159360 0.700000
557.415890 1.300000
558.117800 0.600000
558.139470 3.200000
559.155210 1.200000
563.383610 0.600000
573.110290 0.600000
575.077580 0.600000
575.105960 1.300000
575.145690 9.200000
576.096250 0.900000
576.144780 1.500000
577.171330 0.500000
591.080510 1.100000
593.077450 0.600000
593.144780 25.100000
593.986080 0.500000
594.118840 1.700000
594.158570 3.400000
595.148440 1.300000
595.178590 2.400000
597.163880 0.700000
609.137510 2.000000
609.170530 0.700000
609.260010 0.600000
610.136720 1.600000
610.906010 0.500000
611.028870 1.100000
611.069340 2.100000
611.098630 1.900000
611.161130 100.000000
611.177490 30.900000
611.221010 1.400000

NAME: Nantenine
SCANNUMBER: RIKEN_MONA_284
PRECURSORMZ: 340.154335
PRECURSORTYPE: [M+H]+
IONMODE: Positive
SPECTRUMTYPE: MS2
COLLISIONENERGY: 10 eV
FORMULA: C20H21NO4
SMILES: COc1cc2c3c(c1OC)-c1cc4c(cc1C[C@@H]3N(C)CC2)OCO4
INCHI: InChI=1S/C20H21NO4/c1-21-5-4-11-7-17(22-2)20(23-3)19-13-9-16-15(24-10-25-16)8-12(13)6-14(21)18(11)19/h7-9,14H,4-6,10H2,1-3H3/t14-/m0/s1
INCHIKEY: WSVWKHTVFGTTKJ-AWEZNQCLSA-N
RETENTIONTIME: 4.886017
COMMENT: dataset=RIKEN_MONA; source_file=external_data/raw_libraries/RIKEN_MONA.xlsx; source_row=284; RT_sec=293.16102
Num Peaks: 80
165.064060 0.800000
165.073240 1.500000
177.071440 0.900000
178.074710 0.600000
189.073090 0.800000
190.076930 0.900000
191.083300 1.100000
193.066280 1.600000
205.061490 3.000000
205.070530 2.300000
206.071490 1.200000
207.083020 1.400000
208.089800 1.300000
209.062030 0.600000
217.063050 0.800000
219.068100 0.500000
219.084380 1.600000
220.090210 2.500000
221.062580 1.800000
221.097720 0.800000
222.059680 0.700000
222.071850 0.600000
223.070800 1.900000
223.080720 2.300000
223.097320 0.500000
224.078460 0.600000
233.059300 3.300000
234.067350 1.000000
235.076200 13.700000
236.078640 3.000000
236.086690 1.900000
237.084370 1.000000
237.094090 0.500000
247.075900 3.200000
248.079220 0.900000
248.087750 1.700000
249.057100 2.500000
249.089600 1.500000
250.059620 0.700000
251.065630 3.300000
251.074390 4.600000
251.106580 1.200000
252.076460 1.300000
261.054600 2.200000
262.051390 0.600000
262.061980 2.300000
263.070950 17.600000
264.075070 5.100000
265.050110 1.900000
265.070160 1.300000
265.087280 3.900000
266.053740 1.000000
266.073880 0.600000
266.095520 1.900000
277.075260 0.700000
277.087860 3.400000
278.052310 1.000000
278.093320 93.400000
278.140590 1.400000
279.066990 33.000000
279.083560 7.700000
279.100190 14.800000
280.073210 12.200000
280.106050 1.600000
281.081120 1.900000
282.082890 0.600000
294.048490 0.700000
294.089420 63.600000
294.138890 1.200000
295.092770 13.000000
296.096010 1.500000
297.115390 0.900000
309.113220 77.200000
309.164250 0.900000
310.117550 17.500000
311.111600 0.800000
311.124760 2.400000
340.084750 0.600000
340.155580 100.000000
340.208830 2.900000

NAME: Napelline
SCANNUMBER: RIKEN_MONA_285
PRECURSORMZ: 360.253320
PRECURSORTYPE: [M+H]+
IONMODE: Positive
SPECTRUMTYPE: MS2
COLLISIONENERGY: 10 eV
FORMULA: C22H33NO3
SMILES: C=C1[C@@H]2C[C@]3([C@@H]1O)[C@H]1C[C@@H]4[C@@]5(C)CC[C@H](O)[C@@]4([C@H]1N(CC)C5)[C@@H]3C[C@@H]2O
INCHI: InChI=1S/C22H33NO3/c1-4-23-10-20(3)6-5-17(25)22-15(20)7-13(18(22)23)21-9-12(11(2)19(21)26)14(24)8-16(21)22/h12-19,24-26H,2,4-10H2,1,3H3/t12-,13-,14-,15+,16+,17-,18-,19+,20-,21-,22-/m0/s1
INCHIKEY: AZAZKLKDEOMJBJ-LRQOHANXSA-N
RETENTIONTIME: 3.051550
COMMENT: dataset=RIKEN_MONA; source_file=external_data/raw_libraries/RIKEN_MONA.xlsx; source_row=285; RT_sec=183.093
Num Peaks: 7
107.088610 0.800000
342.243070 40.700000
343.245180 8.600000
344.246610 1.400000
344.259550 0.500000
360.254180 100.000000
360.308650 1.800000

NAME: Naringenin
SCANNUMBER: RIKEN_MONA_286
PRECURSORMZ: 273.075750
PRECURSORTYPE: [M+H]+
IONMODE: Positive
SPECTRUMTYPE: MS2
COLLISIONENERGY: 10 eV
FORMULA: C15H12O5
SMILES: O=C1C[C@@H](c2ccc(O)cc2)Oc2cc(O)cc(O)c21
INCHI: InChI=1S/C15H12O5/c16-9-3-1-8(2-4-9)13-7-12(19)15-11(18)5-10(17)6-14(15)20-13/h1-6,13,16-18H,7H2/t13-/m0/s1
INCHIKEY: FTVWIRXFELQLPI-ZDUSSCGKSA-N
RETENTIONTIME: 5.946617
COMMENT: dataset=RIKEN_MONA; source_file=external_data/raw_libraries/RIKEN_MONA.xlsx; source_row=286; RT_sec=356.79702
Num Peaks: 22
91.048030 0.600000
91.054540 2.000000
107.049640 0.900000
111.010670 0.600000
119.047880 9.300000
120.050670 1.200000
121.058080 0.500000
123.045460 1.100000
142.250760 0.500000
147.026570 0.800000
147.042480 36.000000
148.042620 2.500000
148.052110 1.500000
153.016830 62.400000
154.020140 4.300000
155.034040 0.800000
189.061430 1.100000
237.752330 0.700000
273.034940 0.600000
273.045230 0.500000
273.075900 100.000000
273.121610 0.800000

NAME: Naringenin-7-O-glucoside
SCANNUMBER: RIKEN_MONA_287
PRECURSORMZ: 435.128573
PRECURSORTYPE: [M+H]+
IONMODE: Positive
SPECTRUMTYPE: MS2
COLLISIONENERGY: 10 eV
FORMULA: C21H22O10
SMILES: O=C1C[C@@H](c2ccc(O)cc2)Oc2cc(O[C@@H]3O[C@H](CO)[C@@H](O)[C@H](O)[C@H]3O)cc(O)c21
INCHI: InChI=1S/C21H22O10/c22-8-16-18(26)19(27)20(28)21(31-16)29-11-5-12(24)17-13(25)7-14(30-15(17)6-11)9-1-3-10(23)4-2-9/h1-6,14,16,18-24,26-28H,7-8H2/t14-,16+,18+,19-,20+,21+/m0/s1
INCHIKEY: DLIKSSGEMUFQOK-SFTVRKLSSA-N
RETENTIONTIME: 4.520517
COMMENT: dataset=RIKEN_MONA; source_file=external_data/raw_libraries/RIKEN_MONA.xlsx; source_row=287; RT_sec=271.23102
Num Peaks: 24
85.027600 0.800000
119.046980 1.400000
147.042970 12.100000
151.026930 0.900000
152.988530 0.500000
153.002750 1.200000
153.018860 34.800000
154.018920 2.900000
157.227890 0.700000
179.030520 0.800000
206.202440 0.600000
231.068730 0.700000
273.075710 100.000000
274.050290 1.000000
274.066710 3.000000
274.081050 10.200000
274.105590 0.900000
275.076390 2.800000
285.065250 1.000000
381.100430 0.800000
399.115630 0.500000
400.106050 0.600000
435.127870 2.900000
435.144350 2.600000

NAME: Naringenin-7-O-rutinoside
SCANNUMBER: RIKEN_MONA_288
PRECURSORMZ: 581.186482
PRECURSORTYPE: [M+H]+
IONMODE: Positive
SPECTRUMTYPE: MS2
COLLISIONENERGY: 10 eV
FORMULA: C27H32O14
SMILES: C[C@@H]1O[C@@H](OC[C@H]2O[C@@H](Oc3cc(O)c4c(c3)O[C@H](c3ccc(O)cc3)CC4=O)[C@H](O)[C@@H](O)[C@@H]2O)[C@H](O)[C@H](O)[C@H]1O
INCHI: InChI=1S/C27H32O14/c1-10-20(31)22(33)24(35)26(38-10)37-9-18-21(32)23(34)25(36)27(41-18)39-13-6-14(29)19-15(30)8-16(40-17(19)7-13)11-2-4-12(28)5-3-11/h2-7,10,16,18,20-29,31-36H,8-9H2,1H3/t10-,16-,18+,20-,21+,22+,23-,24+,25+,26+,27+/m0/s1
INCHIKEY: HXTFHSYLYXVTHC-AJHDJQPGSA-N
RETENTIONTIME: 4.281600
COMMENT: dataset=RIKEN_MONA; source_file=external_data/raw_libraries/RIKEN_MONA.xlsx; source_row=288; RT_sec=256.896
Num Peaks: 91
71.047170 4.400000
83.050610 2.100000
85.022710 1.400000
85.034010 3.300000
86.023890 2.400000
127.035760 4.100000
129.046460 2.300000
129.053010 6.100000
129.059100 3.300000
130.049500 2.400000
145.051190 7.200000
146.060790 2.800000
147.066280 1.700000
148.054760 2.400000
153.015580 9.600000
161.049420 1.400000
177.056790 3.000000
191.029540 4.900000
195.025670 9.900000
196.031420 1.900000
201.056050 3.200000
219.018800 2.100000
220.026180 4.400000
231.092800 1.400000
233.040970 3.700000
235.048360 1.500000
245.042240 6.200000
263.035370 1.800000
263.045040 6.500000
263.060670 4.000000
271.036040 2.000000
271.051970 7.000000
272.064030 6.200000
273.035460 1.600000
273.075260 100.000000
274.074620 21.400000
274.088470 4.100000
275.080810 1.500000
281.068210 2.000000
285.031280 2.300000
289.081360 1.600000
297.067140 1.500000
298.075040 2.900000
309.133270 2.400000
309.622830 2.300000
313.081760 2.700000
315.084720 7.700000
315.097960 2.000000
323.080840 3.000000
323.091770 1.800000
339.078610 1.900000
340.049650 2.300000
365.093570 7.400000
369.112090 2.400000
381.104490 1.700000
383.094390 3.500000
383.116580 16.200000
384.109190 2.200000
386.547730 1.600000
390.982600 1.900000
393.052120 1.900000
400.121280 2.100000
401.113890 3.600000
401.133730 1.700000
402.125760 1.800000
417.107880 1.700000
417.125890 4.500000
417.149870 1.400000
419.110290 6.900000
419.142910 22.900000
420.138210 5.600000
421.106410 2.200000
421.138400 2.100000
421.155030 2.400000
426.119630 4.200000
433.089390 1.500000
433.105440 1.600000
434.107790 4.300000
434.964750 1.900000
435.070980 1.400000
435.083950 1.900000
435.103730 5.600000
435.134610 9.100000
436.125090 4.000000
450.137020 2.400000
461.139070 1.900000
547.179080 2.000000
579.205630 1.500000
580.128540 2.800000
581.161800 7.100000
581.181090 18.300000

NAME: Naringin
SCANNUMBER: RIKEN_MONA_289
PRECURSORMZ: 581.186482
PRECURSORTYPE: [M+H]+
IONMODE: Positive
SPECTRUMTYPE: MS2
COLLISIONENERGY: 10 eV
FORMULA: C27H32O14
SMILES: CC1OC(OC2C(Oc3cc(O)c4c(c3)OC(c3ccc(O)cc3)CC4=O)OC(CO)C(O)C2O)C(O)C(O)C1O
INCHI: InChI=1S/C27H32O14/c1-10-20(32)22(34)24(36)26(37-10)41-25-23(35)21(33)18(9-28)40-27(25)38-13-6-14(30)19-15(31)8-16(39-17(19)7-13)11-2-4-12(29)5-3-11/h2-7,10,16,18,20-30,32-36H,8-9H2,1H3
INCHIKEY: DFPMSGMNTNDNHN-UHFFFAOYSA-N
RETENTIONTIME: 4.377234
COMMENT: dataset=RIKEN_MONA; source_file=external_data/raw_libraries/RIKEN_MONA.xlsx; source_row=289; RT_sec=262.634039999999
Num Peaks: 108
71.048800 1.800000
85.028340 3.900000
127.040920 0.900000
129.054820 8.800000
130.052780 0.800000
130.059540 1.200000
133.261320 1.200000
137.057570 2.500000
147.040130 2.400000
147.060030 0.800000
147.069980 0.900000
148.048140 1.000000
153.016650 12.100000
153.027210 4.200000
154.014340 1.200000
165.013870 1.000000
195.013720 0.900000
195.032320 11.300000
195.044510 1.200000
196.030380 2.000000
205.007350 1.200000
219.015500 4.000000
219.030870 2.000000
219.049220 1.800000
231.040310 1.900000
231.082870 0.900000
232.024520 1.200000
235.066560 1.900000
237.031020 0.900000
243.027020 1.300000
243.067660 1.000000
244.044720 1.200000
245.040040 0.800000
245.049800 1.000000
249.045070 0.900000
261.017150 1.000000
261.030180 1.100000
261.043300 1.100000
263.054960 2.100000
271.060700 13.000000
272.041750 2.400000
272.067410 4.900000
273.048400 0.900000
273.075500 100.000000
274.075900 17.000000
274.092500 1.800000
281.054930 0.800000
281.070560 1.300000
282.055880 1.200000
282.233150 1.000000
285.086330 0.800000
286.075380 2.000000
297.059570 1.000000
297.074950 0.800000
301.488950 0.800000
309.121700 1.300000
315.086300 10.300000
315.101780 2.000000
316.087400 0.800000
316.098020 1.000000
339.076930 1.000000
339.095700 1.000000
365.085910 0.900000
366.071010 1.100000
369.095790 1.000000
373.082210 1.000000
381.088870 2.200000
381.106350 3.500000
382.103330 1.200000
382.856990 1.400000
383.110470 2.500000
384.117980 0.900000
399.099790 2.000000
401.105500 1.000000
401.123540 7.300000
417.110750 2.500000
417.125640 1.100000
417.774930 1.000000
418.138520 3.900000
419.054320 0.900000
419.089480 1.000000
419.127620 22.800000
420.134190 1.300000
420.144200 2.800000
425.117890 1.000000
435.133610 14.800000
435.340000 1.600000
436.128390 1.000000
436.142300 1.300000
437.125370 1.600000
437.150270 2.100000
441.095400 1.000000
443.139310 0.800000
459.138340 0.900000
461.143160 2.100000
498.141270 0.900000
528.165410 0.800000
545.144960 0.800000
545.160100 1.100000
545.187810 0.900000
546.167790 0.800000
564.175540 0.800000
565.182010 0.800000
566.183040 0.900000
579.190860 0.900000
580.173520 6.200000
581.152220 0.900000
581.187320 9.000000

NAME: Neocuproine
SCANNUMBER: RIKEN_MONA_290
PRECURSORMZ: 209.107325
PRECURSORTYPE: [M+H]+
IONMODE: Positive
SPECTRUMTYPE: MS2
COLLISIONENERGY: 10 eV
FORMULA: C14H12N2
SMILES: Cc1ccc2ccc3ccc(C)nc3c2n1
INCHI: InChI=1S/C14H12N2/c1-9-3-5-11-7-8-12-6-4-10(2)16-14(12)13(11)15-9/h3-8H,1-2H3
INCHIKEY: IYRGXJIJGHOCFS-UHFFFAOYSA-N
RETENTIONTIME: 3.466517
COMMENT: dataset=RIKEN_MONA; source_file=external_data/raw_libraries/RIKEN_MONA.xlsx; source_row=290; RT_sec=207.99102
Num Peaks: 11
167.073720 1.300000
181.095580 0.600000
182.096220 0.700000
192.078020 0.800000
193.076020 1.800000
194.083970 2.100000
206.084060 0.600000
207.089720 3.100000
208.100080 7.100000
209.108090 100.000000
209.149060 2.700000

NAME: Norharman
SCANNUMBER: RIKEN_MONA_291
PRECURSORMZ: 169.076025
PRECURSORTYPE: [M+H]+
IONMODE: Positive
SPECTRUMTYPE: MS2
COLLISIONENERGY: 10 eV
FORMULA: C11H8N2
SMILES: c1ccc2c(c1)[nH]c1cnccc12
INCHI: InChI=1S/C11H8N2/c1-2-4-10-8(3-1)9-5-6-12-7-11(9)13-10/h1-7,13H
INCHIKEY: AIFRHYZBTHREPW-UHFFFAOYSA-N
RETENTIONTIME: 3.483517
COMMENT: dataset=RIKEN_MONA; source_file=external_data/raw_libraries/RIKEN_MONA.xlsx; source_row=291; RT_sec=209.01102
Num Peaks: 7
115.050420 1.700000
115.055640 4.500000
116.050940 0.800000
142.065660 0.800000
168.067580 2.700000
169.076220 100.000000
169.114240 1.200000

NAME: O-Acetylsolasodine
SCANNUMBER: RIKEN_MONA_292
PRECURSORMZ: 456.347221
PRECURSORTYPE: [M+H]+
IONMODE: Positive
SPECTRUMTYPE: MS2
COLLISIONENERGY: 10 eV
FORMULA: C29H45NO3
SMILES: CC(=O)OC1CCC2(C)C(=CCC3C2CCC2(C)C3CC3OC4(CCC(C)CN4)C(C)C32)C1
INCHI: InChI=1S/C29H45NO3/c1-17-8-13-29(30-16-17)18(2)26-25(33-29)15-24-22-7-6-20-14-21(32-19(3)31)9-11-27(20,4)23(22)10-12-28(24,26)5/h6,17-18,21-26,30H,7-16H2,1-5H3
INCHIKEY: MCQNPWNREVNWDQ-UHFFFAOYSA-N
RETENTIONTIME: 8.160717
COMMENT: dataset=RIKEN_MONA; source_file=external_data/raw_libraries/RIKEN_MONA.xlsx; source_row=292; RT_sec=489.64302
Num Peaks: 24
107.085140 0.600000
109.101330 0.800000
114.093200 0.600000
121.101330 0.800000
124.111950 0.900000
126.128650 1.300000
133.102660 1.300000
143.085220 0.800000
145.102040 1.000000
147.117900 1.800000
149.131810 0.700000
157.101300 4.000000
158.106140 0.800000
159.116940 1.200000
171.116640 0.800000
197.134800 0.600000
253.196990 5.200000
254.200580 1.100000
378.317630 2.900000
379.318940 0.900000
438.338290 5.100000
439.340880 1.500000
456.349520 100.000000
456.411710 2.800000

NAME: Okanin-4'-O-glucoside
SCANNUMBER: RIKEN_MONA_293
PRECURSORMZ: 451.123488
PRECURSORTYPE: [M+H]+
IONMODE: Positive
SPECTRUMTYPE: MS2
COLLISIONENERGY: 10 eV
FORMULA: C21H22O11
SMILES: O=C(/C=C/c1ccc(O)c(O)c1)c1ccc(O[C@@H]2O[C@H](CO)[C@@H](O)[C@H](O)[C@H]2O)c(O)c1O
INCHI: InChI=1S/C21H22O11/c22-8-15-18(28)19(29)20(30)21(32-15)31-14-6-3-10(16(26)17(14)27)11(23)4-1-9-2-5-12(24)13(25)7-9/h1-7,15,18-22,24-30H,8H2/b4-1+/t15-,18-,19+,20-,21-/m1/s1
INCHIKEY: XGEYXJDOVMEJNG-HTFDPZBKSA-N
RETENTIONTIME: 4.101267
COMMENT: dataset=RIKEN_MONA; source_file=external_data/raw_libraries/RIKEN_MONA.xlsx; source_row=293; RT_sec=246.07602
Num Peaks: 54
71.054150 1.100000
81.005010 1.500000
123.043440 1.600000
127.037160 2.400000
134.995800 0.900000
135.049410 1.300000
145.025390 3.100000
145.048860 2.600000
151.042600 0.900000
153.004010 1.300000
153.015530 13.300000
154.022460 2.500000
155.014820 1.900000
162.979810 1.100000
163.020690 1.500000
163.039340 27.100000
179.027250 0.800000
179.035020 3.800000
181.072070 0.600000
187.065800 0.800000
195.032440 1.000000
196.019180 0.900000
197.054610 2.200000
215.070040 0.700000
215.077700 0.700000
225.052410 1.600000
226.064540 1.000000
241.053820 0.700000
253.043330 6.500000
253.058520 0.700000
255.995850 0.600000
257.034330 0.700000
271.048100 1.000000
271.059360 4.100000
271.075130 0.900000
274.049740 0.900000
275.054720 1.200000
288.790740 1.000000
289.020750 1.900000
289.039980 2.100000
289.070920 100.000000
290.053190 0.700000
290.069520 15.000000
291.073940 5.100000
291.095250 2.700000
314.075410 0.700000
355.074370 1.600000
403.282870 1.200000
416.107330 0.700000
450.113680 0.800000
451.091280 1.000000
451.114810 5.500000
451.129550 4.100000
451.156220 2.700000

NAME: Ormosanine
SCANNUMBER: RIKEN_MONA_294
PRECURSORMZ: 318.290375
PRECURSORTYPE: [M+H]+
IONMODE: Positive
SPECTRUMTYPE: MS2
COLLISIONENERGY: 10 eV
FORMULA: C20H35N3
SMILES: C1CC[C@H]([C@]23C[C@@H](C[C@@H]4CCCN[C@H]42)[C@H]2CCCCN2C3)NC1
INCHI: InChI=1S/C20H35N3/c1-3-9-21-18(8-1)20-13-16(12-15-6-5-10-22-19(15)20)17-7-2-4-11-23(17)14-20/h15-19,21-22H,1-14H2/t15-,16+,17+,18+,19+,20+/m0/s1
INCHIKEY: YUKCLPPRYNXRAF-RFVXBFLTSA-N
RETENTIONTIME: 2.244817
COMMENT: dataset=RIKEN_MONA; source_file=external_data/raw_libraries/RIKEN_MONA.xlsx; source_row=294; RT_sec=134.68902
Num Peaks: 23
83.088230 0.500000
84.079200 0.700000
84.083870 1.200000
96.081820 1.000000
98.095930 1.300000
109.104310 0.600000
136.111250 0.700000
204.157300 0.500000
209.209780 0.600000
233.206280 0.900000
234.195790 0.800000
235.212200 2.000000
236.225220 1.000000
262.230960 0.600000
299.258700 0.800000
301.252470 0.600000
309.945040 0.700000
316.261570 0.600000
316.279420 0.600000
317.281100 1.200000
318.224820 0.600000
318.256840 1.500000
318.290800 100.000000

NAME: Osthole
SCANNUMBER: RIKEN_MONA_295
PRECURSORMZ: 245.117221
PRECURSORTYPE: [M+H]+
IONMODE: Positive
SPECTRUMTYPE: MS2
COLLISIONENERGY: 10 eV
FORMULA: C15H16O3
SMILES: COc1ccc2ccc(=O)oc2c1CC=C(C)C
INCHI: InChI=1S/C15H16O3/c1-10(2)4-7-12-13(17-3)8-5-11-6-9-14(16)18-15(11)12/h4-6,8-9H,7H2,1-3H3
INCHIKEY: MBRLOUHOWLUMFF-UHFFFAOYSA-N
RETENTIONTIME: 8.747050
COMMENT: dataset=RIKEN_MONA; source_file=external_data/raw_libraries/RIKEN_MONA.xlsx; source_row=295; RT_sec=524.823
Num Peaks: 16
77.040160 1.400000
103.054850 5.700000
104.059390 0.500000
105.069070 0.700000
131.048800 38.500000
132.052630 4.200000
133.065170 0.900000
159.044130 4.500000
161.059890 3.000000
187.037830 0.600000
189.054720 100.000000
189.093930 2.600000
190.058870 12.800000
191.061710 1.000000
203.075740 0.800000
245.117610 24.000000

NAME: Oxyacanthine
SCANNUMBER: RIKEN_MONA_296
PRECURSORMZ: 609.295913
PRECURSORTYPE: [M+H]+
IONMODE: Positive
SPECTRUMTYPE: MS2
COLLISIONENERGY: 10 eV
FORMULA: C37H40N2O6
SMILES: COc1cc2c3cc1Oc1c(OC)c(OC)cc4c1C(Cc1ccc(cc1)Oc1cc(ccc1O)C[C@H]3N(C)CC2)N(C)CC4
INCHI: InChI=1S/C37H40N2O6/c1-38-14-12-24-19-32(41-3)33-21-27(24)28(38)17-23-8-11-30(40)31(18-23)44-26-9-6-22(7-10-26)16-29-35-25(13-15-39(29)2)20-34(42-4)36(43-5)37(35)45-33/h6-11,18-21,28-29,40H,12-17H2,1-5H3/t28-,29?/m1/s1
INCHIKEY: HGNHIFJNOKGSKI-FICMROCWSA-N
RETENTIONTIME: 3.764483
COMMENT: dataset=RIKEN_MONA; source_file=external_data/raw_libraries/RIKEN_MONA.xlsx; source_row=296; RT_sec=225.86898
Num Peaks: 58
105.060650 0.600000
162.093890 0.500000
163.073960 0.800000
175.065520 0.500000
176.110080 0.800000
196.089450 0.500000
206.120090 0.600000
210.071040 0.800000
219.091550 0.600000
220.107530 0.600000
222.110690 1.400000
223.123090 0.800000
237.094210 0.800000
252.109850 0.600000
264.116460 0.800000
268.117980 0.900000
283.125060 0.500000
305.140590 0.900000
305.655940 0.500000
306.663020 0.700000
320.145140 0.600000
329.161040 0.500000
336.159760 0.600000
355.133090 0.800000
364.193970 0.500000
381.160520 0.500000
381.175540 1.500000
381.201780 0.500000
382.066070 0.700000
382.181920 1.000000
395.183960 0.600000
396.207640 0.900000
402.197570 0.500000
403.156650 0.600000
408.142120 0.500000
413.170840 0.500000
441.237850 0.700000
474.179720 0.800000
478.233980 0.600000
503.192080 0.500000
519.223820 0.700000
520.189270 0.500000
536.211360 0.500000
536.237790 0.600000
544.724180 0.500000
546.225520 0.800000
548.206540 0.900000
563.239990 0.800000
566.229310 1.000000
566.263610 0.800000
567.250060 2.400000
578.194270 0.500000
578.233760 0.800000
578.260440 4.000000
579.273620 1.200000
608.272520 1.400000
609.244690 4.500000
609.298650 100.000000

NAME: Paeoniflorin
SCANNUMBER: RIKEN_MONA_297
PRECURSORMZ: 479.155885
PRECURSORTYPE: [M-H]-
IONMODE: Negative
SPECTRUMTYPE: MS2
COLLISIONENERGY: 10 eV
FORMULA: C23H28O11
SMILES: CC12CC3(O)OC(O1)C1(COC(=O)c4ccccc4)C3CC21OC1OC(CO)C(O)C(O)C1O
INCHI: InChI=1S/C23H28O11/c1-20-9-22(29)13-7-23(20,32-18-16(27)15(26)14(25)12(8-24)31-18)21(13,19(33-20)34-22)10-30-17(28)11-5-3-2-4-6-11/h2-6,12-16,18-19,24-27,29H,7-10H2,1H3
INCHIKEY: YKRGDOXKVOZESV-UHFFFAOYSA-N
RETENTIONTIME: 3.779183
COMMENT: dataset=RIKEN_MONA; source_file=external_data/raw_libraries/RIKEN_MONA.xlsx; source_row=297; RT_sec=226.75098
Num Peaks: 20
77.039580 4.300000
95.048450 4.000000
113.022110 4.000000
113.028240 9.300000
121.027370 100.000000
122.030960 8.500000
149.055680 3.600000
163.033250 3.600000
165.054370 15.400000
195.059950 3.600000
196.074080 3.600000
249.070740 4.000000
327.103970 30.200000
357.106630 4.900000
449.136290 20.800000
449.149140 39.300000
450.149780 3.600000
451.148470 4.300000
452.148650 3.600000
479.144680 4.500000

NAME: Paeonol
SCANNUMBER: RIKEN_MONA_298
PRECURSORMZ: 167.070271
PRECURSORTYPE: [M+H]+
IONMODE: Positive
SPECTRUMTYPE: MS2
COLLISIONENERGY: 10 eV
FORMULA: C9H10O3
SMILES: COc1ccc(C(C)=O)c(O)c1
INCHI: InChI=1S/C9H10O3/c1-6(10)8-4-3-7(12-2)5-9(8)11/h3-5,11H,1-2H3
INCHIKEY: UILPJVPSNHJFIK-UHFFFAOYSA-N
RETENTIONTIME: 6.573467
COMMENT: dataset=RIKEN_MONA; source_file=external_data/raw_libraries/RIKEN_MONA.xlsx; source_row=298; RT_sec=394.40802
Num Peaks: 8
91.053140 1.400000
121.065590 8.000000
125.062110 2.800000
149.044130 0.900000
149.059660 13.600000
150.060230 0.600000
166.822370 0.700000
167.070570 100.000000

NAME: Palmatine
SCANNUMBER: RIKEN_MONA_299
PRECURSORMZ: 352.153786
PRECURSORTYPE: [M]+
IONMODE: Positive
SPECTRUMTYPE: MS2
COLLISIONENERGY: 10 eV
FORMULA: [C21H22NO4]+
SMILES: COc1cc2c(cc1OC)-c1cc3ccc(OC)c(OC)c3c[n+]1CC2
INCHI: InChI=1S/C21H22NO4/c1-23-18-6-5-13-9-17-15-11-20(25-3)19(24-2)10-14(15)7-8-22(17)12-16(13)21(18)26-4/h5-6,9-12H,7-8H2,1-4H3/q+1
INCHIKEY: QUCQEUCGKKTEBI-UHFFFAOYSA-N
RETENTIONTIME: 4.955133
COMMENT: dataset=RIKEN_MONA; source_file=external_data/raw_libraries/RIKEN_MONA.xlsx; source_row=299; RT_sec=297.30798
Num Peaks: 31
264.103580 0.900000
275.099000 0.800000
276.106230 0.600000
278.084630 2.400000
279.086210 1.000000
291.123540 1.200000
292.099210 6.300000
293.104890 3.400000
294.113680 8.600000
295.118800 1.200000
304.097630 1.500000
305.102110 0.800000
307.117740 0.500000
308.129360 15.000000
309.132200 4.000000
318.073940 0.600000
320.092190 5.000000
320.127140 4.500000
321.100650 3.200000
321.133060 0.600000
322.109920 6.600000
323.112580 1.700000
334.108830 1.000000
336.125210 23.900000
337.131440 19.600000
338.121090 0.700000
338.136320 3.400000
339.143400 0.500000
352.095400 0.800000
352.154600 100.000000
352.208500 3.000000

NAME: Papaverine
SCANNUMBER: RIKEN_MONA_300
PRECURSORMZ: 340.154335
PRECURSORTYPE: [M+H]+
IONMODE: Positive
SPECTRUMTYPE: MS2
COLLISIONENERGY: 10 eV
FORMULA: C20H21NO4
SMILES: COc1ccc(Cc2nccc3cc(OC)c(OC)cc23)cc1OC
INCHI: InChI=1S/C20H21NO4/c1-22-17-6-5-13(10-18(17)23-2)9-16-15-12-20(25-4)19(24-3)11-14(15)7-8-21-16/h5-8,10-12H,9H2,1-4H3
INCHIKEY: XQYZDYMELSJDRZ-UHFFFAOYSA-N
RETENTIONTIME: 4.491683
COMMENT: dataset=RIKEN_MONA; source_file=external_data/raw_libraries/RIKEN_MONA.xlsx; source_row=300; RT_sec=269.50098
Num Peaks: 22
158.060560 0.700000
159.067230 0.500000
170.060260 0.800000
171.067890 6.900000
172.071790 2.000000
186.057310 1.300000
187.061250 1.200000
188.069460 0.500000
202.085910 20.500000
203.090480 3.800000
280.094390 1.900000
294.117340 0.500000
295.119480 0.700000
296.128200 2.900000
308.089750 2.200000
309.092100 0.500000
310.104640 0.600000
324.121980 19.400000
325.126500 6.300000
326.132540 1.000000
340.154480 100.000000
340.207610 3.000000

NAME: Pelargonidin-3,5-di-beta-D-glucoside
SCANNUMBER: RIKEN_MONA_301
PRECURSORMZ: 595.165198
PRECURSORTYPE: [M]+
IONMODE: Positive
SPECTRUMTYPE: MS2
COLLISIONENERGY: 10 eV
FORMULA: [C27H31O15]+
SMILES: OC[C@H]1O[C@@H](Oc2cc3c(O[C@@H]4O[C@H](CO)[C@@H](O)[C@H](O)[C@H]4O)cc(O)cc3[o+]c2-c2ccc(O)cc2)[C@H](O)[C@@H](O)[C@@H]1O
INCHI: InChI=1S/C27H30O15/c28-8-17-19(32)21(34)23(36)26(41-17)39-15-6-12(31)5-14-13(15)7-16(25(38-14)10-1-3-11(30)4-2-10)40-27-24(37)22(35)20(33)18(9-29)42-27/h1-7,17-24,26-29,32-37H,8-9H2,(H-,30,31)/p+1/t17-,18-,19-,20-,21+,22+,23-,24-,26-,27-/m1/s1
INCHIKEY: SLCKJKWFULXZBD-ZOTFFYTFSA-O
RETENTIONTIME: 2.705367
COMMENT: dataset=RIKEN_MONA; source_file=external_data/raw_libraries/RIKEN_MONA.xlsx; source_row=301; RT_sec=162.322019999999
Num Peaks: 14
271.015440 1.600000
271.058750 100.000000
272.048280 2.700000
272.067840 9.800000
273.057980 1.800000
433.059110 0.700000
433.109380 27.800000
434.096010 1.800000
434.113190 4.500000
434.132420 0.700000
435.125090 2.000000
464.117860 0.800000
595.112670 1.700000
595.165040 55.800000

NAME: Pelargonidin-3-O-glucoside
SCANNUMBER: RIKEN_MONA_302
PRECURSORMZ: 433.112375
PRECURSORTYPE: [M]+
IONMODE: Positive
SPECTRUMTYPE: MS2
COLLISIONENERGY: 10 eV
FORMULA: [C21H21O10]+
SMILES: OC[C@H]1O[C@@H](Oc2cc3c(O)cc(O)cc3[o+]c2-c2ccc(O)cc2)[C@H](O)[C@@H](O)[C@@H]1O
INCHI: InChI=1S/C21H20O10/c22-8-16-17(26)18(27)19(28)21(31-16)30-15-7-12-13(25)5-11(24)6-14(12)29-20(15)9-1-3-10(23)4-2-9/h1-7,16-19,21-22,26-28H,8H2,(H2-,23,24,25)/p+1/t16-,17-,18+,19-,21-/m1/s1
INCHIKEY: ABVCUBUIXWJYSE-GQUPQBGVSA-O
RETENTIONTIME: 3.119067
COMMENT: dataset=RIKEN_MONA; source_file=external_data/raw_libraries/RIKEN_MONA.xlsx; source_row=302; RT_sec=187.144019999999
Num Peaks: 8
145.063710 0.700000
271.018830 2.200000
271.061160 100.000000
272.064790 19.000000
273.063140 1.100000
273.073910 0.700000
433.070650 1.500000
433.113040 26.800000

NAME: Peonidin-3,5-O-di-beta-glucoside
SCANNUMBER: RIKEN_MONA_303
PRECURSORMZ: 625.175763
PRECURSORTYPE: [M]+
IONMODE: Positive
SPECTRUMTYPE: MS2
COLLISIONENERGY: 10 eV
FORMULA: [C28H33O16]+
SMILES: COc1cc(-c2[o+]c3cc(O)cc(O[C@@H]4O[C@H](CO)[C@@H](O)[C@H](O)[C@H]4O)c3cc2O[C@@H]2O[C@H](CO)[C@@H](O)[C@H](O)[C@H]2O)ccc1O
INCHI: InChI=1S/C28H32O16/c1-39-16-4-10(2-3-13(16)32)26-17(42-28-25(38)23(36)21(34)19(9-30)44-28)7-12-14(40-26)5-11(31)6-15(12)41-27-24(37)22(35)20(33)18(8-29)43-27/h2-7,18-25,27-30,33-38H,8-9H2,1H3,(H-,31,32)/p+1/t18-,19-,20-,21-,22+,23+,24-,25-,27-,28-/m1/s1
INCHIKEY: IPVSUYLZIAYTOK-DPOJTEBASA-O
RETENTIONTIME: 2.793933
COMMENT: dataset=RIKEN_MONA; source_file=external_data/raw_libraries/RIKEN_MONA.xlsx; source_row=303; RT_sec=167.63598
Num Peaks: 23
135.725370 0.500000
235.059860 0.500000
258.057160 0.500000
301.026550 0.800000
301.036900 1.200000
301.069670 100.000000
301.114440 0.500000
302.068300 10.000000
302.080540 9.500000
303.059690 1.100000
303.079100 2.200000
432.031590 0.500000
463.113800 21.200000
463.133880 5.500000
464.086940 0.800000
464.129120 6.800000
464.945220 0.500000
465.124390 0.700000
465.145360 0.600000
504.433200 0.600000
625.083800 0.600000
625.115300 2.100000
625.173770 59.000000

NAME: Peonidin-3-O-alpha-arabinoside
SCANNUMBER: RIKEN_MONA_304
PRECURSORMZ: 433.112923
PRECURSORTYPE: [M+H]+
IONMODE: Positive
SPECTRUMTYPE: MS2
COLLISIONENERGY: 10 eV
FORMULA: C21H20O10
SMILES: COc1cc(-c2[o+]c3cc(O)cc([O-])c3cc2OC2OCC(O)C(O)C2O)ccc1O
INCHI: InChI=1S/C21H20O10/c1-28-16-4-9(2-3-12(16)23)20-17(31-21-19(27)18(26)14(25)8-29-21)7-11-13(24)5-10(22)6-15(11)30-20/h2-7,14,18-19,21,25-27H,8H2,1H3,(H2-,22,23,24)
INCHIKEY: KRUPPTWQKIEURV-UHFFFAOYSA-N
RETENTIONTIME: 3.296733
COMMENT: dataset=RIKEN_MONA; source_file=external_data/raw_libraries/RIKEN_MONA.xlsx; source_row=304; RT_sec=197.80398
Num Peaks: 13
229.052370 0.600000
230.062070 1.600000
258.052250 4.400000
268.035060 0.800000
286.046080 11.300000
286.055850 4.000000
287.050870 1.600000
301.070710 100.000000
302.044650 0.900000
302.076420 16.300000
303.078890 2.300000
433.030940 0.600000
433.112370 36.600000

NAME: Peonidin-3-O-beta-galactoside
SCANNUMBER: RIKEN_MONA_305
PRECURSORMZ: 463.123488
PRECURSORTYPE: [M+H]+
IONMODE: Positive
SPECTRUMTYPE: MS2
COLLISIONENERGY: 10 eV
FORMULA: C22H22O11
SMILES: COc1cc(-c2[o+]c3cc(O)cc([O-])c3cc2O[C@@H]2O[C@H](CO)[C@H](O)[C@H](O)[C@H]2O)ccc1O
INCHI: InChI=1S/C22H22O11/c1-30-15-4-9(2-3-12(15)25)21-16(7-11-13(26)5-10(24)6-14(11)31-21)32-22-20(29)19(28)18(27)17(8-23)33-22/h2-7,17-20,22-23,27-29H,8H2,1H3,(H2-,24,25,26)/t17-,18+,19+,20-,22-/m1/s1
INCHIKEY: ZZWPMFROUHHAKY-VRRLNDPFSA-N
RETENTIONTIME: 3.121167
COMMENT: dataset=RIKEN_MONA; source_file=external_data/raw_libraries/RIKEN_MONA.xlsx; source_row=305; RT_sec=187.27002
Num Peaks: 15
258.052030 1.800000
268.022920 0.600000
268.037600 1.100000
286.043640 9.000000
286.058320 3.300000
287.046540 1.000000
287.059450 1.000000
301.027310 1.500000
301.070920 100.000000
302.002870 0.600000
302.063110 6.500000
302.076840 14.100000
303.072910 2.300000
463.112520 15.000000
463.135800 18.900000

NAME: Peonidin-3-O-glucoside
SCANNUMBER: RIKEN_MONA_306
PRECURSORMZ: 463.122939
PRECURSORTYPE: [M]+
IONMODE: Positive
SPECTRUMTYPE: MS2
COLLISIONENERGY: 10 eV
FORMULA: [C22H23O11]+
SMILES: COc1cc(-c2[o+]c3cc(O)cc(O)c3cc2O[C@@H]2O[C@H](CO)[C@@H](O)[C@H](O)[C@H]2O)ccc1O
INCHI: InChI=1S/C22H22O11/c1-30-15-4-9(2-3-12(15)25)21-16(7-11-13(26)5-10(24)6-14(11)31-21)32-22-20(29)19(28)18(27)17(8-23)33-22/h2-7,17-20,22-23,27-29H,8H2,1H3,(H2-,24,25,26)/p+1/t17-,18-,19+,20-,22-/m1/s1
INCHIKEY: ZZWPMFROUHHAKY-OUUKCGNVSA-O
RETENTIONTIME: 3.185850
COMMENT: dataset=RIKEN_MONA; source_file=external_data/raw_libraries/RIKEN_MONA.xlsx; source_row=306; RT_sec=191.150999999999
Num Peaks: 19
202.062380 1.200000
213.050810 0.500000
213.059560 0.500000
257.040440 0.600000
258.040990 1.400000
258.062530 0.600000
259.050720 0.600000
268.035430 1.300000
286.045200 15.800000
287.057340 1.000000
301.012970 0.600000
301.025050 1.200000
301.069580 100.000000
302.076390 17.700000
303.067260 1.100000
303.081760 1.600000
378.272800 0.600000
463.079130 0.500000
463.121920 33.800000

NAME: Petiline
SCANNUMBER: RIKEN_MONA_307
PRECURSORMZ: 414.336656
PRECURSORTYPE: [M+H]+
IONMODE: Positive
SPECTRUMTYPE: MS2
COLLISIONENERGY: 10 eV
FORMULA: C27H43NO2
SMILES: C[C@H]1CCC([C@@H](C)[C@H]2CC[C@H]3[C@@H]4CC(=O)[C@H]5C[C@@H](O)CC[C@]5(C)[C@H]4CC[C@@]32C)=NC1
INCHI: InChI=1S/C27H43NO2/c1-16-5-8-24(28-15-16)17(2)20-6-7-21-19-14-25(30)23-13-18(29)9-11-27(23,4)22(19)10-12-26(20,21)3/h16-23,29H,5-15H2,1-4H3/t16-,17-,18-,19-,20+,21-,22-,23+,26+,27+/m0/s1
INCHIKEY: QAGPPGDCPAPQLW-HAQROMNMSA-N
RETENTIONTIME: 4.946450
COMMENT: dataset=RIKEN_MONA; source_file=external_data/raw_libraries/RIKEN_MONA.xlsx; source_row=307; RT_sec=296.787
Num Peaks: 5
98.095670 0.900000
126.126830 1.700000
149.132280 1.000000
414.337100 100.000000
414.396000 3.200000

NAME: Petunidin 3-galactoside
SCANNUMBER: RIKEN_MONA_308
PRECURSORMZ: 479.117854
PRECURSORTYPE: [M]+
IONMODE: Positive
SPECTRUMTYPE: MS2
COLLISIONENERGY: 10 eV
FORMULA: [C22H23O12]+
SMILES: COc1cc(-c2[o+]c3cc(O)cc(O)c3cc2OC2OC(CO)C(O)C(O)C2O)cc(O)c1O
INCHI: InChI=1S/C22H22O12/c1-31-14-3-8(2-12(26)17(14)27)21-15(6-10-11(25)4-9(24)5-13(10)32-21)33-22-20(30)19(29)18(28)16(7-23)34-22/h2-6,16,18-20,22-23,28-30H,7H2,1H3,(H3-,24,25,26,27)/p+1
INCHIKEY: CCQDWIRWKWIUKK-UHFFFAOYSA-O
RETENTIONTIME: 2.889417
COMMENT: dataset=RIKEN_MONA; source_file=external_data/raw_libraries/RIKEN_MONA.xlsx; source_row=308; RT_sec=173.36502
Num Peaks: 16
217.047130 1.000000
245.039400 0.500000
274.047670 2.200000
274.057130 0.900000
302.025390 0.700000
302.044800 8.100000
303.041080 0.900000
304.046840 0.600000
316.062410 0.600000
317.013890 0.900000
317.039340 1.100000
317.065670 100.000000
318.069210 20.600000
319.070010 1.400000
319.085270 0.700000
479.118560 41.200000

NAME: Petunidin-3-O-beta-glucoside
SCANNUMBER: RIKEN_MONA_309
PRECURSORMZ: 479.117854
PRECURSORTYPE: [M]+
IONMODE: Positive
SPECTRUMTYPE: MS2
COLLISIONENERGY: 10 eV
FORMULA: [C22H23O12]+
SMILES: COc1cc(-c2[o+]c3cc(O)cc(O)c3cc2O[C@@H]2O[C@H](CO)[C@@H](O)[C@H](O)[C@H]2O)cc(O)c1O
INCHI: InChI=1S/C22H22O12/c1-31-14-3-8(2-12(26)17(14)27)21-15(6-10-11(25)4-9(24)5-13(10)32-21)33-22-20(30)19(29)18(28)16(7-23)34-22/h2-6,16,18-20,22-23,28-30H,7H2,1H3,(H3-,24,25,26,27)/p+1/t16-,18-,19+,20-,22-/m1/s1
INCHIKEY: CCQDWIRWKWIUKK-QKYBYQKWSA-O
RETENTIONTIME: 3.212583
COMMENT: dataset=RIKEN_MONA; source_file=external_data/raw_libraries/RIKEN_MONA.xlsx; source_row=309; RT_sec=192.75498
Num Peaks: 23
121.028990 0.600000
153.019090 2.600000
201.061040 0.700000
217.050050 0.500000
228.043210 0.600000
229.053330 1.000000
257.044770 1.100000
273.034060 0.900000
274.039220 1.300000
274.052430 0.800000
285.041560 1.300000
285.055210 0.500000
302.036010 3.600000
302.049990 3.000000
303.042910 0.600000
317.015080 1.000000
317.066070 100.000000
318.007420 0.600000
318.069120 18.400000
319.080140 0.600000
479.065030 0.700000
479.084780 2.300000
479.121400 32.200000

NAME: Phillyrin
SCANNUMBER: RIKEN_MONA_310
PRECURSORMZ: 533.202835
PRECURSORTYPE: [M-H]-
IONMODE: Negative
SPECTRUMTYPE: MS2
COLLISIONENERGY: 10 eV
FORMULA: C27H34O11
SMILES: COc1ccc(C2OCC3C(c4ccc(OC5OC(CO)C(O)C(O)C5O)c(OC)c4)OCC23)cc1OC
INCHI: InChI=1S/C27H34O11/c1-32-17-6-4-13(8-19(17)33-2)25-15-11-36-26(16(15)12-35-25)14-5-7-18(20(9-14)34-3)37-27-24(31)23(30)22(29)21(10-28)38-27/h4-9,15-16,21-31H,10-12H2,1-3H3
INCHIKEY: KFFCKOBAHMGTMW-UHFFFAOYSA-N
RETENTIONTIME: 5.128117
COMMENT: dataset=RIKEN_MONA; source_file=external_data/raw_libraries/RIKEN_MONA.xlsx; source_row=310; RT_sec=307.687019999999
Num Peaks: 11
113.021230 15.800000
121.025600 14.000000
151.039630 21.900000
161.038020 14.900000
161.053180 27.200000
178.019440 17.500000
283.098510 26.300000
356.136960 29.800000
371.132230 31.600000
371.154720 100.000000
372.146550 19.300000

NAME: Phloretin-2'-O-glucoside
SCANNUMBER: RIKEN_MONA_311
PRECURSORMZ: 435.129670
PRECURSORTYPE: [M-H]-
IONMODE: Negative
SPECTRUMTYPE: MS2
COLLISIONENERGY: 10 eV
FORMULA: C21H24O10
SMILES: O=C(CCc1ccc(O)cc1)c1c(O)cc(O)cc1OC1OC(CO)C(O)C(O)C1O
INCHI: InChI=1S/C21H24O10/c22-9-16-18(27)19(28)20(29)21(31-16)30-15-8-12(24)7-14(26)17(15)13(25)6-3-10-1-4-11(23)5-2-10/h1-2,4-5,7-8,16,18-24,26-29H,3,6,9H2
INCHIKEY: IOUVKUPGCMBWBT-UHFFFAOYSA-N
RETENTIONTIME: 4.725600
COMMENT: dataset=RIKEN_MONA; source_file=external_data/raw_libraries/RIKEN_MONA.xlsx; source_row=311; RT_sec=283.536
Num Peaks: 21
81.032070 0.800000
93.029720 1.300000
119.047770 3.600000
123.043270 7.700000
124.053440 0.900000
125.021690 5.000000
149.017550 1.500000
149.025070 0.600000
151.001750 0.500000
167.033050 45.200000
168.037520 5.600000
179.033800 4.900000
189.055300 1.400000
191.033550 0.900000
255.056260 0.700000
255.068130 0.600000
273.074460 100.000000
274.078490 16.200000
275.074250 0.700000
275.083040 1.300000
435.123900 6.200000

NAME: Physostigmine
SCANNUMBER: RIKEN_MONA_312
PRECURSORMZ: 276.170653
PRECURSORTYPE: [M+H]+
IONMODE: Positive
SPECTRUMTYPE: MS2
COLLISIONENERGY: 10 eV
FORMULA: C15H21N3O2
SMILES: CN=C(O)Oc1ccc2c(c1)[C@]1(C)CCN(C)[C@@H]1N2C
INCHI: InChI=1S/C15H21N3O2/c1-15-7-8-17(3)13(15)18(4)12-6-5-10(9-11(12)15)20-14(19)16-2/h5-6,9,13H,7-8H2,1-4H3,(H,16,19)/t13-,15+/m1/s1
INCHIKEY: PIJVFDBKTWXHHD-HIFRSBDPSA-N
RETENTIONTIME: 3.311900
COMMENT: dataset=RIKEN_MONA; source_file=external_data/raw_libraries/RIKEN_MONA.xlsx; source_row=312; RT_sec=198.714
Num Peaks: 64
119.070670 0.600000
132.083820 0.600000
133.061800 0.500000
134.100740 2.900000
134.108370 1.100000
134.674550 0.500000
144.078780 0.700000
144.088240 1.300000
145.095640 0.500000
146.051030 0.600000
146.065350 2.100000
147.053280 1.400000
147.068010 25.100000
147.327680 0.700000
148.073870 1.800000
148.114150 0.500000
159.265720 0.800000
160.068560 1.400000
160.077590 1.700000
160.086850 1.200000
161.075610 3.000000
161.084790 11.800000
162.064680 1.000000
162.092090 100.000000
163.077070 1.600000
163.095290 12.100000
164.096560 1.700000
172.073650 1.400000
172.082210 0.700000
173.081390 7.300000
174.086910 0.900000
176.090940 0.900000
176.107240 22.900000
177.103970 3.500000
177.113370 1.600000
182.698520 0.500000
187.128140 0.600000
188.107270 7.200000
188.121860 0.600000
189.111430 0.900000
190.115400 0.800000
203.120710 0.600000
204.120070 1.200000
204.148470 1.000000
206.489730 0.500000
218.137570 1.300000
219.061650 0.500000
219.080470 1.000000
219.111680 74.700000
219.137130 1.100000
219.151860 4.700000
219.166980 0.500000
220.095030 0.700000
220.114670 12.900000
220.155180 1.800000
232.173110 0.800000
233.128230 3.800000
233.144530 0.500000
233.182770 0.600000
234.132950 0.600000
245.131620 2.100000
260.018040 0.600000
274.161680 0.500000
276.169830 22.200000

NAME: Pilocarpine
SCANNUMBER: RIKEN_MONA_313
PRECURSORMZ: 209.128454
PRECURSORTYPE: [M+H]+
IONMODE: Positive
SPECTRUMTYPE: MS2
COLLISIONENERGY: 10 eV
FORMULA: C11H16N2O2
SMILES: CC[C@@H]1C(=O)OC[C@@H]1Cc1cncn1C
INCHI: InChI=1S/C11H16N2O2/c1-3-10-8(6-15-11(10)14)4-9-5-12-7-13(9)2/h5,7-8,10H,3-4,6H2,1-2H3/t8-,10-/m0/s1
INCHIKEY: QCHFTSOMWOSFHM-WPRPVWTQSA-N
RETENTIONTIME: 2.398533
COMMENT: dataset=RIKEN_MONA; source_file=external_data/raw_libraries/RIKEN_MONA.xlsx; source_row=313; RT_sec=143.91198
Num Peaks: 15
95.060630 7.800000
96.068790 5.600000
97.072050 0.800000
109.076580 1.000000
121.077810 2.500000
122.085550 0.500000
122.098880 0.900000
133.078120 0.500000
135.092090 0.800000
136.112850 0.700000
151.123950 0.500000
163.125150 5.600000
191.122820 0.500000
209.130080 100.000000
209.171910 3.100000

NAME: Pinoresinol
SCANNUMBER: RIKEN_MONA_314
PRECURSORMZ: 357.134362
PRECURSORTYPE: [M-H]-
IONMODE: Negative
SPECTRUMTYPE: MS2
COLLISIONENERGY: 10 eV
FORMULA: C20H22O6
SMILES: COc1cc(C2OCC3C(c4ccc(O)c(OC)c4)OCC23)ccc1O
INCHI: InChI=1S/C20H22O6/c1-23-17-7-11(3-5-15(17)21)19-13-9-26-20(14(13)10-25-19)12-4-6-16(22)18(8-12)24-2/h3-8,13-14,19-22H,9-10H2,1-2H3
INCHIKEY: HGXBRUKMWQGOIE-UHFFFAOYSA-N
RETENTIONTIME: 5.590617
COMMENT: dataset=RIKEN_MONA; source_file=external_data/raw_libraries/RIKEN_MONA.xlsx; source_row=314; RT_sec=335.43702
Num Peaks: 10
121.024050 15.200000
136.014010 89.900000
136.020550 27.800000
151.038440 100.000000
151.048370 65.200000
152.011550 13.300000
160.037660 18.400000
324.099180 13.300000
342.095890 11.400000
357.128420 18.400000

NAME: Piperine
SCANNUMBER: RIKEN_MONA_315
PRECURSORMZ: 286.143770
PRECURSORTYPE: [M+H]+
IONMODE: Positive
SPECTRUMTYPE: MS2
COLLISIONENERGY: 10 eV
FORMULA: C17H19NO3
SMILES: O=C(/C=C/C=C/c1ccc2c(c1)OCO2)N1CCCCC1
INCHI: InChI=1S/C17H19NO3/c19-17(18-10-4-1-5-11-18)7-3-2-6-14-8-9-15-16(12-14)21-13-20-15/h2-3,6-9,12H,1,4-5,10-11,13H2/b6-2+,7-3+
INCHIKEY: MXXWOMGUGJBKIW-YPCIICBESA-N
RETENTIONTIME: 7.838300
COMMENT: dataset=RIKEN_MONA; source_file=external_data/raw_libraries/RIKEN_MONA.xlsx; source_row=315; RT_sec=470.298
Num Peaks: 29
69.072320 0.700000
84.081690 0.500000
86.099630 0.600000
112.077040 2.300000
115.054620 16.200000
116.058920 1.500000
117.070420 0.700000
127.053610 0.600000
135.044450 14.100000
136.048770 1.600000
143.049870 12.000000
144.053700 1.500000
145.063250 0.600000
151.095250 0.700000
151.102220 0.800000
159.045610 2.900000
171.046190 7.900000
172.047070 1.100000
173.060590 4.200000
201.022580 0.500000
201.056060 66.900000
201.097260 1.600000
202.059130 9.100000
203.057850 0.900000
203.071260 0.600000
286.100100 0.600000
286.146210 100.000000
286.194270 3.500000
286.339810 0.700000

NAME: Piperlongumine
SCANNUMBER: RIKEN_MONA_316
PRECURSORMZ: 318.133599
PRECURSORTYPE: [M+H]+
IONMODE: Positive
SPECTRUMTYPE: MS2
COLLISIONENERGY: 10 eV
FORMULA: C17H19NO5
SMILES: COc1cc(/C=C/C(=O)N2CCC=CC2=O)cc(OC)c1OC
INCHI: InChI=1S/C17H19NO5/c1-21-13-10-12(11-14(22-2)17(13)23-3)7-8-16(20)18-9-5-4-6-15(18)19/h4,6-8,10-11H,5,9H2,1-3H3/b8-7+
INCHIKEY: VABYUUZNAVQNPG-BQYQJAHWSA-N
RETENTIONTIME: 6.826983
COMMENT: dataset=RIKEN_MONA; source_file=external_data/raw_libraries/RIKEN_MONA.xlsx; source_row=316; RT_sec=409.61898
Num Peaks: 88
77.039470 1.000000
77.044880 0.700000
91.057910 1.000000
98.065250 1.100000
102.045900 0.800000
103.049230 0.700000
105.061930 0.900000
115.062520 0.500000
117.037990 0.700000
118.043260 0.900000
119.041070 0.500000
119.048770 0.700000
120.822640 0.600000
129.035900 1.000000
130.039670 1.500000
131.019990 0.700000
131.053820 0.900000
132.051510 1.500000
135.043640 2.400000
144.014160 0.900000
146.039080 0.500000
147.035580 1.100000
147.047680 2.600000
149.061340 0.700000
150.228330 0.700000
159.001970 0.600000
160.054900 0.600000
161.020750 0.500000
161.052220 1.900000
161.069340 0.700000
162.056320 1.300000
162.069290 4.300000
163.028990 2.500000
163.038990 1.400000
163.047060 2.000000
163.081740 0.600000
167.076280 1.000000
174.026750 1.000000
174.065800 1.100000
175.043300 3.900000
176.019870 0.500000
176.033550 0.600000
176.051270 1.800000
177.056440 2.500000
178.056400 0.500000
178.070830 2.100000
179.073750 0.600000
181.091310 0.600000
188.052980 0.800000
189.057530 1.000000
190.036830 1.800000
190.049040 1.800000
190.064420 12.900000
190.073790 4.000000
191.023410 0.600000
191.039080 3.500000
191.065930 1.300000
192.070650 1.900000
193.033770 1.000000
193.068600 1.700000
193.083850 7.500000
193.092470 4.300000
194.089650 2.900000
194.112670 0.700000
206.049390 0.700000
206.059690 2.800000
207.068790 0.600000
212.068570 0.800000
221.005290 0.600000
221.046630 1.100000
221.080410 100.000000
222.084950 16.900000
223.085750 2.500000
225.783950 0.700000
229.110780 0.600000
274.106900 1.400000
274.118740 0.700000
274.479770 0.600000
276.079220 0.700000
289.121220 0.900000
289.141540 1.900000
300.115200 0.500000
304.136260 0.700000
317.111690 1.100000
317.128050 5.600000
318.093540 0.500000
318.122650 2.200000
318.136600 6.500000

NAME: Plantaginin
SCANNUMBER: RIKEN_MONA_317
PRECURSORMZ: 449.107838
PRECURSORTYPE: [M+H]+
IONMODE: Positive
SPECTRUMTYPE: MS2
COLLISIONENERGY: 10 eV
FORMULA: C21H20O11
SMILES: O=c1cc(-c2ccc(O)cc2)oc2cc(O[C@@H]3O[C@H](CO)[C@@H](O)[C@H](O)[C@H]3O)c(O)c(O)c12
INCHI: InChI=1S/C21H20O11/c22-7-14-17(26)19(28)20(29)21(32-14)31-13-6-12-15(18(27)16(13)25)10(24)5-11(30-12)8-1-3-9(23)4-2-8/h1-6,14,17,19-23,25-29H,7H2/t14-,17-,19+,20-,21-/m1/s1
INCHIKEY: VUGRLRAUZWGZJP-IAAKTDFRSA-N
RETENTIONTIME: 4.073700
COMMENT: dataset=RIKEN_MONA; source_file=external_data/raw_libraries/RIKEN_MONA.xlsx; source_row=317; RT_sec=244.421999999999
Num Peaks: 6
241.052550 0.800000
269.052890 0.600000
287.056670 100.000000
288.060060 17.900000
289.061710 1.000000
449.111570 17.200000

NAME: Procaine
SCANNUMBER: RIKEN_MONA_318
PRECURSORMZ: 237.159754
PRECURSORTYPE: [M+H]+
IONMODE: Positive
SPECTRUMTYPE: MS2
COLLISIONENERGY: 10 eV
FORMULA: C13H20N2O2
SMILES: CCN(CC)CCOC(=O)c1ccc(N)cc1
INCHI: InChI=1S/C13H20N2O2/c1-3-15(4-2)9-10-17-13(16)11-5-7-12(14)8-6-11/h5-8H,3-4,9-10,14H2,1-2H3
INCHIKEY: MFDFERRIHVXMIY-UHFFFAOYSA-N
RETENTIONTIME: 2.752083
COMMENT: dataset=RIKEN_MONA; source_file=external_data/raw_libraries/RIKEN_MONA.xlsx; source_row=318; RT_sec=165.12498
Num Peaks: 29
72.076810 1.600000
72.085320 0.600000
73.083820 0.800000
92.015590 0.700000
92.051430 3.700000
100.093070 0.700000
100.098910 0.700000
100.112820 68.300000
100.812300 0.600000
101.109690 4.500000
101.121760 1.400000
120.044510 54.400000
121.043370 0.700000
121.051820 2.500000
121.377880 0.700000
123.405480 0.600000
129.523940 0.600000
154.276730 0.600000
164.058620 3.400000
164.071090 44.500000
165.029080 0.500000
165.068470 1.100000
165.076980 4.600000
170.016040 0.500000
192.595380 0.500000
236.155650 0.600000
236.675950 1.200000
237.162220 100.000000
237.205900 0.600000

NAME: Procyanidin B1
SCANNUMBER: RIKEN_MONA_319
PRECURSORMZ: 579.149703
PRECURSORTYPE: [M+H]+
IONMODE: Positive
SPECTRUMTYPE: MS2
COLLISIONENERGY: 10 eV
FORMULA: C30H26O12
SMILES: Oc1cc(O)c2c(c1)O[C@H](c1ccc(O)c(O)c1)[C@H](O)[C@H]2c1c(O)cc(O)c2c1O[C@H](c1ccc(O)c(O)c1)[C@@H](O)C2
INCHI: InChI=1S/C30H26O12/c31-13-7-20(37)24-23(8-13)41-29(12-2-4-16(33)19(36)6-12)27(40)26(24)25-21(38)10-17(34)14-9-22(39)28(42-30(14)25)11-1-3-15(32)18(35)5-11/h1-8,10,22,26-29,31-40H,9H2/t22-,26+,27+,28+,29+/m0/s1
INCHIKEY: XFZJEEAOWLFHDH-UKWJTHFESA-N
RETENTIONTIME: 2.801367
COMMENT: dataset=RIKEN_MONA; source_file=external_data/raw_libraries/RIKEN_MONA.xlsx; source_row=319; RT_sec=168.08202
Num Peaks: 40
247.061160 2.300000
249.065770 1.000000
271.805080 0.600000
288.917240 0.700000
289.044980 0.800000
289.059600 1.100000
289.075650 4.200000
290.076200 0.900000
291.060000 1.000000
291.078250 7.100000
291.094640 3.700000
292.079410 0.900000
292.097630 0.700000
301.066100 1.300000
301.996700 0.600000
314.338380 0.700000
347.794830 1.100000
359.294370 1.100000
380.004030 0.600000
398.620240 0.600000
409.083860 1.500000
409.101530 5.900000
410.104100 0.700000
411.081510 0.800000
411.103000 1.000000
427.075810 1.500000
427.101560 11.700000
428.055540 0.600000
428.090760 1.400000
429.111330 1.200000
435.105100 1.000000
453.108490 1.600000
453.126890 0.700000
577.103640 0.800000
578.016420 0.900000
578.119930 0.900000
578.141850 0.800000
579.102420 6.500000
579.149110 100.000000
579.193300 1.300000

NAME: Procyanidin B2
SCANNUMBER: RIKEN_MONA_320
PRECURSORMZ: 579.149703
PRECURSORTYPE: [M+H]+
IONMODE: Positive
SPECTRUMTYPE: MS2
COLLISIONENERGY: 10 eV
FORMULA: C30H26O12
SMILES: Oc1cc(O)c2c(c1)O[C@H](c1ccc(O)c(O)c1)[C@H](O)[C@H]2c1c(O)cc(O)c2c1O[C@H](c1ccc(O)c(O)c1)[C@H](O)C2
INCHI: InChI=1S/C30H26O12/c31-13-7-20(37)24-23(8-13)41-29(12-2-4-16(33)19(36)6-12)27(40)26(24)25-21(38)10-17(34)14-9-22(39)28(42-30(14)25)11-1-3-15(32)18(35)5-11/h1-8,10,22,26-29,31-40H,9H2/t22-,26-,27-,28-,29-/m1/s1
INCHIKEY: XFZJEEAOWLFHDH-NFJBMHMQSA-N
RETENTIONTIME: 3.239150
COMMENT: dataset=RIKEN_MONA; source_file=external_data/raw_libraries/RIKEN_MONA.xlsx; source_row=320; RT_sec=194.349
Num Peaks: 35
127.034680 20.200000
139.035030 5.300000
203.032350 5.900000
227.079820 12.500000
233.041440 18.400000
242.048310 6.200000
243.071670 19.000000
246.038210 7.800000
247.053160 7.500000
269.310940 6.900000
271.085140 8.100000
274.019130 6.900000
274.070560 7.800000
275.049320 7.500000
283.058720 8.400000
287.056400 19.300000
289.066650 6.500000
289.081910 15.300000
291.081330 13.700000
291.090610 9.000000
299.051640 8.400000
303.083500 8.100000
312.049070 7.200000
329.077940 7.500000
373.068360 5.900000
407.059720 7.800000
408.069920 14.000000
409.068540 8.700000
413.121890 8.100000
427.101040 7.800000
427.121700 22.100000
428.081730 6.200000
520.804140 5.600000
577.120850 10.300000
579.142700 100.000000

NAME: Procyanidin C1
SCANNUMBER: RIKEN_MONA_321
PRECURSORMZ: 865.198538
PRECURSORTYPE: [M-H]-
IONMODE: Negative
SPECTRUMTYPE: MS2
COLLISIONENERGY: 10 eV
FORMULA: C45H38O18
SMILES: Oc1cc(O)c2c(c1)OC(c1ccc(O)c(O)c1)C(O)C2c1c(O)cc(O)c2c1OC(c1ccc(O)c(O)c1)C(O)C2c1c(O)cc(O)c2c1OC(c1ccc(O)c(O)c1)C(O)C2
INCHI: InChI=1S/C45H38O18/c46-18-10-27(54)33-32(11-18)61-42(16-2-5-21(48)25(52)8-16)39(59)37(33)35-29(56)14-30(57)36-38(40(60)43(63-45(35)36)17-3-6-22(49)26(53)9-17)34-28(55)13-23(50)19-12-31(58)41(62-44(19)34)15-1-4-20(47)24(51)7-15/h1-11,13-14,31,37-43,46-60H,12H2
INCHIKEY: MOJZMWJRUKIQGL-UHFFFAOYSA-N
RETENTIONTIME: 3.463467
COMMENT: dataset=RIKEN_MONA; source_file=external_data/raw_libraries/RIKEN_MONA.xlsx; source_row=321; RT_sec=207.80802
Num Peaks: 102
125.023800 11.900000
137.023420 6.900000
137.031480 2.700000
147.042430 3.600000
161.018300 3.500000
165.015580 3.600000
175.039730 2.900000
177.018140 2.900000
189.134920 6.500000
203.067370 3.800000
234.041380 4.100000
243.026630 5.500000
243.036620 8.700000
245.032140 3.200000
245.040360 9.600000
245.049960 7.200000
245.074660 7.400000
245.086960 2.600000
261.044490 7.500000
269.047360 2.900000
275.054230 3.000000
285.028410 3.200000
287.057920 41.000000
288.055300 2.600000
289.049770 3.300000
289.067630 17.900000
290.069730 6.400000
299.066100 3.500000
299.696870 4.600000
301.069000 2.900000
314.068850 2.900000
326.045100 4.800000
330.083890 3.900000
330.250240 2.600000
331.078310 2.900000
339.082890 5.500000
341.058500 3.600000
367.037660 3.600000
381.064030 3.800000
381.102940 3.900000
382.055970 3.200000
405.055570 8.800000
406.123690 3.300000
407.064240 16.200000
407.087100 3.000000
408.071470 6.700000
411.066890 3.300000
411.090580 5.400000
412.064670 3.900000
413.100220 3.600000
414.082670 10.000000
419.062230 2.900000
423.049440 5.500000
423.080690 3.800000
425.090480 17.700000
425.980410 5.800000
427.065520 3.800000
440.064300 3.600000
447.082860 3.900000
449.078160 4.600000
451.099550 2.600000
451.118500 3.000000
452.100830 3.600000
453.100950 7.800000
480.976040 3.000000
483.109770 2.900000
531.143250 4.200000
533.127870 2.600000
543.049740 4.100000
543.095090 3.500000
556.842650 2.900000
560.133670 2.900000
569.091060 2.600000
570.121700 6.100000
575.105160 7.700000
575.123840 12.300000
576.117130 10.300000
576.130490 3.000000
577.129210 25.200000
578.153200 8.100000
580.144470 2.700000
616.138550 5.100000
650.131900 2.600000
693.135930 3.200000
694.097960 2.900000
695.120360 6.700000
695.149960 10.400000
696.158330 6.500000
697.137330 2.900000
711.129880 5.800000
713.120790 4.100000
713.155330 5.600000
714.135010 2.900000
739.157230 3.200000
739.183650 6.200000
740.206050 3.000000
848.233400 3.300000
848.941100 4.800000
860.145870 3.600000
863.188540 3.600000
864.158200 3.600000
865.200070 100.000000

NAME: Protopine
SCANNUMBER: RIKEN_MONA_322
PRECURSORMZ: 354.133599
PRECURSORTYPE: [M+H]+
IONMODE: Positive
SPECTRUMTYPE: MS2
COLLISIONENERGY: 10 eV
FORMULA: C20H19NO5
SMILES: CN1CCc2cc3c(cc2C(=O)Cc2ccc4c(c2C1)OCO4)OCO3
INCHI: InChI=1S/C20H19NO5/c1-21-5-4-13-7-18-19(25-10-24-18)8-14(13)16(22)6-12-2-3-17-20(15(12)9-21)26-11-23-17/h2-3,7-8H,4-6,9-11H2,1H3
INCHIKEY: GPTFURBXHJWNHR-UHFFFAOYSA-N
RETENTIONTIME: 4.362817
COMMENT: dataset=RIKEN_MONA; source_file=external_data/raw_libraries/RIKEN_MONA.xlsx; source_row=322; RT_sec=261.769019999999
Num Peaks: 41
119.048520 0.800000
135.045960 1.000000
147.042710 0.500000
149.060470 7.700000
150.065090 0.600000
159.073150 1.200000
163.039050 0.700000
165.054990 2.600000
175.040190 1.100000
177.074710 0.700000
178.084900 0.600000
188.071170 18.300000
189.078550 19.800000
190.076460 1.600000
190.084560 3.100000
195.080260 1.200000
206.082690 3.700000
207.086460 1.400000
209.060230 0.700000
217.066770 1.200000
223.076390 0.900000
225.091630 0.500000
235.077770 1.100000
237.089580 1.000000
247.063870 0.500000
247.077100 3.100000
265.082280 1.100000
267.067470 0.700000
275.071170 3.800000
276.078860 0.800000
278.119260 0.900000
293.089170 0.700000
295.089140 0.600000
305.082090 0.600000
320.090360 1.200000
323.088320 0.700000
323.097900 0.500000
336.126830 1.900000
354.079470 0.600000
354.133820 100.000000
354.188140 2.400000

NAME: Pseudocopsinine
SCANNUMBER: RIKEN_MONA_323
PRECURSORMZ: 339.206705
PRECURSORTYPE: [M+H]+
IONMODE: Positive
SPECTRUMTYPE: MS2
COLLISIONENERGY: 10 eV
FORMULA: C21H26N2O2
SMILES: COC(=O)C1CC23CCCN4CCC5(c6ccccc6NC15C2C)C43
INCHI: InChI=1S/C21H26N2O2/c1-13-19-8-5-10-23-11-9-20(18(19)23)14-6-3-4-7-16(14)22-21(13,20)15(12-19)17(24)25-2/h3-4,6-7,13,15,18,22H,5,8-12H2,1-2H3
INCHIKEY: CZLWGXKWXLVFJU-UHFFFAOYSA-N
RETENTIONTIME: 4.237600
COMMENT: dataset=RIKEN_MONA; source_file=external_data/raw_libraries/RIKEN_MONA.xlsx; source_row=323; RT_sec=254.255999999999
Num Peaks: 16
96.081840 12.100000
97.080630 1.400000
97.087550 1.200000
98.003230 0.700000
144.080720 0.600000
154.065860 1.100000
170.063720 1.100000
184.067290 0.600000
216.102290 1.200000
221.118000 0.700000
253.164760 0.600000
261.154970 1.100000
262.085110 0.600000
339.170650 2.700000
339.207060 100.000000
339.245640 1.000000

NAME: Pseudojervine
SCANNUMBER: RIKEN_MONA_324
PRECURSORMZ: 588.353094
PRECURSORTYPE: [M+H]+
IONMODE: Positive
SPECTRUMTYPE: MS2
COLLISIONENERGY: 10 eV
FORMULA: C33H49NO8
SMILES: CC1=C2C(=O)C3C(CC=C4C[C@@H](O[C@@H]5OC(CO)[C@@H](O)C(O)C5O)CCC43C)C2CC[C@]12O[C@@H]1CC(C)CN[C@H]1C2C
INCHI: InChI=1S/C33H49NO8/c1-15-11-22-26(34-13-15)17(3)33(42-22)10-8-20-21-6-5-18-12-19(40-31-30(39)29(38)27(36)23(14-35)41-31)7-9-32(18,4)25(21)28(37)24(20)16(33)2/h5,15,17,19-23,25-27,29-31,34-36,38-39H,6-14H2,1-4H3/t15?,17?,19-,20?,21?,22+,23?,25?,26-,27+,29?,30?,31+,32?,33-/m0/s1
INCHIKEY: HYDDDNUKNMMWBD-WJWSUNTISA-N
RETENTIONTIME: 4.009517
COMMENT: dataset=RIKEN_MONA; source_file=external_data/raw_libraries/RIKEN_MONA.xlsx; source_row=324; RT_sec=240.571019999999
Num Peaks: 7
114.091930 1.100000
126.126890 0.500000
149.095470 0.900000
295.205440 0.600000
588.286320 0.500000
588.353580 100.000000
588.425480 1.800000

NAME: Pteropodine
SCANNUMBER: RIKEN_MONA_325
PRECURSORMZ: 369.180884
PRECURSORTYPE: [M+H]+
IONMODE: Positive
SPECTRUMTYPE: MS2
COLLISIONENERGY: 10 eV
FORMULA: C21H24N2O4
SMILES: COC(=O)C1=CO[C@@H](C)[C@@H]2CN3CC[C@]4(C(O)=Nc5ccccc54)[C@@H]3C[C@H]12
INCHI: InChI=1S/C21H24N2O4/c1-12-14-10-23-8-7-21(16-5-3-4-6-17(16)22-20(21)25)18(23)9-13(14)15(11-27-12)19(24)26-2/h3-6,11-14,18H,7-10H2,1-2H3,(H,22,25)/t12-,13-,14-,18-,21+/m0/s1
INCHIKEY: JMIAZDVHNCCPDM-QLMFUGSGSA-N
RETENTIONTIME: 4.235034
COMMENT: dataset=RIKEN_MONA; source_file=external_data/raw_libraries/RIKEN_MONA.xlsx; source_row=325; RT_sec=254.10204
Num Peaks: 34
108.079490 0.600000
115.054080 0.600000
118.063630 0.600000
124.039760 0.700000
130.063660 0.500000
132.043790 1.400000
132.079730 2.500000
142.064540 3.100000
144.078810 0.500000
158.060200 1.700000
160.075090 20.700000
161.077030 2.700000
178.085850 2.100000
187.087520 0.900000
201.101650 4.700000
202.106170 0.600000
210.110720 0.700000
213.101680 4.300000
215.116490 0.600000
237.103130 0.700000
239.116230 1.400000
241.132130 0.600000
265.097410 3.000000
265.133580 0.800000
267.147430 1.200000
293.129670 1.600000
309.157350 1.400000
325.156890 0.600000
337.153470 25.600000
338.158690 5.500000
339.161070 0.800000
369.121190 0.700000
369.180020 100.000000
369.236300 3.100000

NAME: Puberanidine
SCANNUMBER: RIKEN_MONA_326
PRECURSORMZ: 543.306478
PRECURSORTYPE: [M+H]+
IONMODE: Positive
SPECTRUMTYPE: MS2
COLLISIONENERGY: 10 eV
FORMULA: C30H42N2O7
SMILES: CCN1C[C@]2(OC(=O)c3ccccc3N)CC[C@H](OC)C34C1C(C[C@@H]32)[C@@]1(O)C[C@H](OC)[C@H]2C[C@@H]4[C@]1(O)[C@H]2OC
INCHI: InChI=1S/C30H42N2O7/c1-5-32-15-27(39-26(33)16-8-6-7-9-19(16)31)11-10-23(37-3)29-21(27)13-18(24(29)32)28(34)14-20(36-2)17-12-22(29)30(28,35)25(17)38-4/h6-9,17-18,20-25,34-35H,5,10-15,31H2,1-4H3/t17-,18?,20+,21-,22+,23+,24?,25+,27-,28+,29?,30+/m1/s1
INCHIKEY: VSUODASNSRJNCP-WGVBKJPXSA-N
RETENTIONTIME: 4.951167
COMMENT: dataset=RIKEN_MONA; source_file=external_data/raw_libraries/RIKEN_MONA.xlsx; source_row=326; RT_sec=297.07002
Num Peaks: 35
120.044170 1.800000
157.104020 0.700000
193.100810 0.700000
210.130190 0.900000
212.147810 0.700000
219.117740 1.900000
221.135470 0.500000
237.128520 1.000000
249.126650 0.600000
251.142720 0.900000
279.138430 1.000000
280.169860 0.500000
292.166930 1.000000
293.177190 0.600000
311.158970 0.600000
324.198210 4.900000
325.190000 0.600000
325.202120 0.900000
356.222350 4.700000
357.220890 1.100000
374.233090 2.100000
388.249790 3.800000
389.239260 0.600000
406.252470 1.500000
406.262790 3.300000
407.256990 1.200000
424.270200 1.000000
461.243440 0.700000
493.269230 2.300000
494.279140 0.600000
525.303960 1.000000
543.231020 0.700000
543.257930 0.700000
543.305850 100.000000
543.375610 1.900000

NAME: Quercetin
SCANNUMBER: RIKEN_MONA_327
PRECURSORMZ: 303.049929
PRECURSORTYPE: [M+H]+
IONMODE: Positive
SPECTRUMTYPE: MS2
COLLISIONENERGY: 10 eV
FORMULA: C15H10O7
SMILES: O=c1c(O)c(-c2ccc(O)c(O)c2)oc2cc(O)cc(O)c12
INCHI: InChI=1S/C15H10O7/c16-7-4-10(19)12-11(5-7)22-15(14(21)13(12)20)6-1-2-8(17)9(18)3-6/h1-5,16-19,21H
INCHIKEY: REFJWTPEDVJJIY-UHFFFAOYSA-N
RETENTIONTIME: 5.366500
COMMENT: dataset=RIKEN_MONA; source_file=external_data/raw_libraries/RIKEN_MONA.xlsx; source_row=327; RT_sec=321.99
Num Peaks: 31
109.030620 0.500000
122.030290 0.900000
127.056400 0.900000
135.040890 0.500000
137.023860 5.500000
153.002470 0.600000
153.019130 6.800000
155.041640 0.600000
159.040370 0.900000
165.006620 0.500000
165.017870 4.000000
173.057920 0.600000
173.066380 0.800000
183.043690 1.500000
187.038130 1.800000
191.036740 0.500000
201.052690 3.400000
213.061980 0.600000
217.053280 0.800000
219.029130 0.700000
229.047260 5.300000
229.057400 1.500000
230.054700 0.800000
257.047330 4.300000
258.057190 0.800000
274.047420 2.200000
285.035400 0.800000
301.039790 1.100000
302.997860 0.700000
303.018100 2.100000
303.050080 100.000000

NAME: Quercetin 3-O-[2''-O-(6'''-O-p-coumaroyl)-b-D-glucopyranosyl]-a-L-rhamnopyranoside
SCANNUMBER: RIKEN_MONA_328
PRECURSORMZ: 757.197441
PRECURSORTYPE: [M+H]+
IONMODE: Positive
SPECTRUMTYPE: MS2
COLLISIONENERGY: 10 eV
FORMULA: C36H36O18
SMILES: CC1OC(Oc2c(-c3ccc(O)c(O)c3)oc3cc(O)cc(O)c3c2=O)C(OC2OC(COC(=O)/C=C/c3ccc(O)cc3)C(O)C(O)C2O)C(O)C1O
INCHI: InChI=1S/C36H36O18/c1-14-26(43)30(47)34(54-35-31(48)29(46)27(44)23(52-35)13-49-24(42)9-4-15-2-6-17(37)7-3-15)36(50-14)53-33-28(45)25-21(41)11-18(38)12-22(25)51-32(33)16-5-8-19(39)20(40)10-16/h2-12,14,23,26-27,29-31,34-41,43-44,46-48H,13H2,1H3/b9-4+
INCHIKEY: LSMKTLJKBSXMMR-RUDMXATFSA-N
RETENTIONTIME: 4.672917
COMMENT: dataset=RIKEN_MONA; source_file=external_data/raw_libraries/RIKEN_MONA.xlsx; source_row=328; RT_sec=280.37502
Num Peaks: 81
85.026750 0.800000
107.048920 1.100000
111.047060 0.900000
144.146500 0.700000
145.048400 1.100000
147.007750 0.600000
147.021640 0.500000
147.044340 100.000000
148.047640 12.300000
149.051280 1.200000
149.065380 0.600000
151.044620 2.100000
160.063580 0.600000
161.056880 0.600000
165.055830 24.100000
169.047120 2.800000
169.056630 0.600000
211.070860 0.600000
213.099670 1.400000
215.071590 1.500000
231.102370 0.700000
237.072340 1.300000
239.071230 0.900000
255.095140 0.600000
257.055360 2.100000
257.082520 10.500000
258.085780 0.900000
273.071350 0.700000
275.084840 1.600000
291.090730 11.200000
292.089080 1.900000
293.089840 2.200000
293.103760 3.600000
303.050660 23.300000
304.060180 2.400000
309.096440 27.900000
310.101170 8.600000
311.095150 0.800000
327.041840 0.600000
327.056610 1.100000
341.308990 0.600000
345.042270 0.800000
345.063290 5.200000
346.059780 0.700000
369.071560 0.900000
395.073150 0.800000
401.118560 0.800000
401.133360 0.900000
402.138820 1.000000
413.089540 1.900000
414.102570 1.000000
419.126130 7.700000
419.139130 8.100000
420.132810 0.600000
420.149170 1.700000
421.151210 0.500000
431.084560 1.700000
431.103730 1.700000
437.126010 0.600000
437.143590 3.900000
437.158230 2.400000
438.140930 1.100000
449.095180 3.900000
449.113430 8.100000
450.102840 0.600000
450.118650 1.000000
451.119870 0.700000
453.075230 0.500000
455.137970 0.700000
455.159790 5.600000
456.146910 0.800000
456.161500 1.600000
457.152680 0.500000
608.648190 0.500000
636.133120 0.800000
647.304930 0.600000
653.160030 1.600000
654.148740 0.700000
740.138790 1.400000
757.199040 84.500000
757.268070 0.800000

NAME: Quercetin 3-O-[2''-O-b-D-glucopyranosyl]-a-L-rhamnopyranoside
SCANNUMBER: RIKEN_MONA_329
PRECURSORMZ: 611.160661
PRECURSORTYPE: [M+H]+
IONMODE: Positive
SPECTRUMTYPE: MS2
COLLISIONENERGY: 10 eV
FORMULA: C27H30O16
SMILES: CC1OC(Oc2c(-c3ccc(O)c(O)c3)oc3cc(O)cc(O)c3c2=O)C(OC2OC(CO)C(O)C(O)C2O)C(O)C1O
INCHI: InChI=1S/C27H30O16/c1-8-17(33)21(37)25(43-26-22(38)20(36)18(34)15(7-28)41-26)27(39-8)42-24-19(35)16-13(32)5-10(29)6-14(16)40-23(24)9-2-3-11(30)12(31)4-9/h2-6,8,15,17-18,20-22,25-34,36-38H,7H2,1H3
INCHIKEY: DFNXNCCYQRPZMD-UHFFFAOYSA-N
RETENTIONTIME: 4.147800
COMMENT: dataset=RIKEN_MONA; source_file=external_data/raw_libraries/RIKEN_MONA.xlsx; source_row=329; RT_sec=248.868
Num Peaks: 60
70.311930 0.700000
85.026950 6.600000
86.035270 0.900000
111.047040 0.900000
127.037220 0.700000
129.053100 5.800000
129.060730 2.100000
129.832890 2.100000
130.053740 1.000000
131.063860 0.900000
145.047970 0.700000
147.063550 6.100000
152.722820 0.800000
165.085880 0.800000
169.048140 0.800000
219.062850 0.800000
237.860320 0.900000
255.095110 0.700000
287.049650 0.800000
288.059600 0.800000
302.997770 1.500000
303.012570 0.800000
303.051390 100.000000
304.056090 20.300000
304.106290 0.800000
305.050170 0.900000
309.108370 1.100000
309.120390 1.800000
313.237730 0.700000
315.052920 0.700000
316.055150 0.800000
327.042240 0.700000
327.057040 0.700000
345.038730 1.000000
345.055660 4.000000
345.067050 11.800000
346.070010 2.300000
347.059450 1.300000
367.070860 1.500000
369.021670 0.900000
369.072600 3.800000
370.061890 0.800000
371.065090 0.700000
375.076690 0.700000
395.069460 1.500000
413.071080 1.900000
413.099880 4.000000
414.078830 0.800000
414.099950 0.800000
416.121490 0.700000
431.102600 2.300000
431.114530 1.500000
432.114260 2.300000
449.106930 19.200000
450.102840 2.900000
450.119480 1.800000
452.934330 0.700000
507.110260 0.900000
611.158510 18.600000
611.196660 1.000000

NAME: Quercetin-3,4'-O-di-beta-glucoside
SCANNUMBER: RIKEN_MONA_330
PRECURSORMZ: 627.155576
PRECURSORTYPE: [M+H]+
IONMODE: Positive
SPECTRUMTYPE: MS2
COLLISIONENERGY: 10 eV
FORMULA: C27H30O17
SMILES: O=c1c(O[C@@H]2O[C@H](CO)[C@@H](O)[C@H](O)[C@H]2O)c(-c2ccc(O[C@@H]3O[C@H](CO)[C@@H](O)[C@H](O)[C@H]3O)c(O)c2)oc2cc(O)cc(O)c12
INCHI: InChI=1S/C27H30O17/c28-6-14-17(33)20(36)22(38)26(42-14)41-12-2-1-8(3-10(12)31)24-25(19(35)16-11(32)4-9(30)5-13(16)40-24)44-27-23(39)21(37)18(34)15(7-29)43-27/h1-5,14-15,17-18,20-23,26-34,36-39H,6-7H2/t14-,15-,17-,18-,20+,21+,22-,23-,26-,27+/m1/s1
INCHIKEY: RPVIQWDFJPYNJM-DEFKTLOSSA-N
RETENTIONTIME: 3.535150
COMMENT: dataset=RIKEN_MONA; source_file=external_data/raw_libraries/RIKEN_MONA.xlsx; source_row=330; RT_sec=212.108999999999
Num Peaks: 42
85.026300 2.400000
127.042020 1.000000
127.047810 0.900000
145.037640 0.800000
145.051610 1.100000
163.055370 1.100000
216.130800 1.000000
247.063250 0.600000
253.068530 0.900000
258.042540 0.800000
302.618190 0.700000
303.010220 4.500000
303.051300 100.000000
304.024350 1.600000
304.048650 10.700000
304.060790 10.700000
305.042850 0.800000
305.053800 3.100000
305.067810 1.800000
305.458440 0.700000
305.770720 0.700000
306.070310 0.900000
307.009120 0.600000
310.835330 0.600000
393.313200 1.800000
401.073550 0.800000
412.064580 0.900000
429.042880 1.200000
464.984770 0.800000
465.033290 1.100000
465.060300 2.400000
465.099120 64.200000
465.200350 1.000000
466.109070 23.000000
467.086520 2.000000
467.114650 2.900000
468.096130 0.700000
537.178830 0.600000
622.326900 1.100000
627.112550 1.700000
627.138430 9.300000
627.166140 7.500000

NAME: Quercetin-3-O-galactoside
SCANNUMBER: RIKEN_MONA_331
PRECURSORMZ: 465.102753
PRECURSORTYPE: [M+H]+
IONMODE: Positive
SPECTRUMTYPE: MS2
COLLISIONENERGY: 10 eV
FORMULA: C21H20O12
SMILES: O=c1c(O[C@@H]2O[C@H](CO)[C@H](O)[C@H](O)[C@H]2O)c(-c2ccc(O)c(O)c2)oc2cc(O)cc(O)c12
INCHI: InChI=1S/C21H20O12/c22-6-13-15(27)17(29)18(30)21(32-13)33-20-16(28)14-11(26)4-8(23)5-12(14)31-19(20)7-1-2-9(24)10(25)3-7/h1-5,13,15,17-18,21-27,29-30H,6H2/t13-,15+,17+,18-,21+/m1/s1
INCHIKEY: OVSQVDMCBVZWGM-DTGCRPNFSA-N
RETENTIONTIME: 3.996550
COMMENT: dataset=RIKEN_MONA; source_file=external_data/raw_libraries/RIKEN_MONA.xlsx; source_row=331; RT_sec=239.793
Num Peaks: 31
61.018920 0.700000
61.029670 0.700000
91.039510 1.000000
97.033060 0.700000
115.041260 1.000000
145.063960 0.900000
163.055510 0.700000
165.016660 3.100000
188.047090 0.800000
208.840210 0.900000
229.035870 0.900000
229.053960 0.700000
247.053240 0.900000
257.044010 1.400000
299.054320 1.300000
302.982090 1.400000
303.012330 0.800000
303.049470 100.000000
303.093960 0.700000
304.017240 1.700000
304.045840 6.700000
304.054810 15.700000
305.039460 1.900000
305.062470 3.500000
307.067960 0.800000
316.050720 1.000000
393.067170 1.600000
432.982090 0.700000
448.080900 0.900000
465.096920 2.900000
465.113220 0.900000

NAME: Quercetin-3-O-glucoside
SCANNUMBER: RIKEN_MONA_332
PRECURSORMZ: 465.102753
PRECURSORTYPE: [M+H]+
IONMODE: Positive
SPECTRUMTYPE: MS2
COLLISIONENERGY: 10 eV
FORMULA: C21H20O12
SMILES: O=c1c(O[C@@H]2O[C@H](CO)[C@@H](O)[C@H](O)[C@H]2O)c(-c2ccc(O)c(O)c2)oc2cc(O)cc(O)c12
INCHI: InChI=1S/C21H20O12/c22-6-13-15(27)17(29)18(30)21(32-13)33-20-16(28)14-11(26)4-8(23)5-12(14)31-19(20)7-1-2-9(24)10(25)3-7/h1-5,13,15,17-18,21-27,29-30H,6H2/t13-,15-,17+,18-,21+/m1/s1
INCHIKEY: OVSQVDMCBVZWGM-QSOFNFLRSA-N
RETENTIONTIME: 4.025867
COMMENT: dataset=RIKEN_MONA; source_file=external_data/raw_libraries/RIKEN_MONA.xlsx; source_row=332; RT_sec=241.55202
Num Peaks: 29
84.990520 0.700000
111.010060 1.000000
127.029650 0.800000
127.039110 0.800000
145.049000 0.700000
153.017440 2.700000
163.044360 0.700000
201.050810 0.800000
219.026550 1.200000
229.031520 1.000000
229.053500 0.700000
257.038970 0.800000
258.862790 1.200000
302.852420 0.700000
303.009860 0.800000
303.049220 100.000000
304.050350 13.500000
304.065220 2.800000
304.084560 0.800000
305.053280 1.200000
305.064700 2.200000
315.626340 0.800000
355.897430 0.700000
370.036650 1.000000
426.944060 0.900000
430.103700 0.800000
465.029570 0.700000
465.081240 1.100000
465.115020 4.500000

NAME: Quercetin-3-O-glucosyl-6''-acetate
SCANNUMBER: RIKEN_MONA_333
PRECURSORMZ: 507.113317
PRECURSORTYPE: [M+H]+
IONMODE: Positive
SPECTRUMTYPE: MS2
COLLISIONENERGY: 10 eV
FORMULA: C23H22O13
SMILES: CC(=O)OC[C@H]1O[C@@H](Oc2c(-c3ccc(O)c(O)c3)oc3cc(O)cc(O)c3c2=O)[C@H](O)[C@@H](O)[C@@H]1O
INCHI: InChI=1S/C23H22O13/c1-8(24)33-7-15-17(29)19(31)20(32)23(35-15)36-22-18(30)16-13(28)5-10(25)6-14(16)34-21(22)9-2-3-11(26)12(27)4-9/h2-6,15,17,19-20,23,25-29,31-32H,7H2,1H3/t15-,17-,19+,20-,23+/m1/s1
INCHIKEY: IGLUNMMNDNWZOA-LNNZMUSMSA-N
RETENTIONTIME: 4.419233
COMMENT: dataset=RIKEN_MONA; source_file=external_data/raw_libraries/RIKEN_MONA.xlsx; source_row=333; RT_sec=265.15398
Num Peaks: 26
69.031940 0.700000
69.037140 0.800000
81.029750 1.500000
81.035540 1.000000
81.040510 0.600000
97.030120 0.500000
109.020930 0.500000
109.028340 3.100000
121.012700 0.500000
127.031510 0.900000
127.038420 4.100000
137.020250 0.600000
153.024800 0.500000
187.060090 6.700000
188.059220 0.700000
205.065350 0.900000
257.041870 0.600000
303.007750 3.100000
303.049040 100.000000
303.076050 0.500000
304.053650 22.100000
305.045500 2.400000
306.064360 0.700000
330.798160 0.500000
345.063390 0.800000
507.116670 14.500000

NAME: Quercetin-3-O-glucuronide
SCANNUMBER: RIKEN_MONA_334
PRECURSORMZ: 477.067464
PRECURSORTYPE: [M-H]-
IONMODE: Negative
SPECTRUMTYPE: MS2
COLLISIONENERGY: 10 eV
FORMULA: C21H18O13
SMILES: O=C(O)C1OC(Oc2c(-c3ccc(O)c(O)c3)oc3cc(O)cc(O)c3c2=O)C(O)C(O)C1O
INCHI: InChI=1S/C21H18O13/c22-7-4-10(25)12-11(5-7)32-17(6-1-2-8(23)9(24)3-6)18(13(12)26)33-21-16(29)14(27)15(28)19(34-21)20(30)31/h1-5,14-16,19,21-25,27-29H,(H,30,31)
INCHIKEY: DUBCCGAQYVUYEU-UHFFFAOYSA-N
RETENTIONTIME: 4.013533
COMMENT: dataset=RIKEN_MONA; source_file=external_data/raw_libraries/RIKEN_MONA.xlsx; source_row=334; RT_sec=240.811979999999
Num Peaks: 44
113.029010 1.200000
119.012500 1.100000
120.993680 1.500000
121.026600 2.400000
133.034990 1.300000
151.001680 19.800000
163.006090 0.900000
171.044750 2.200000
171.721530 0.800000
178.996730 3.200000
181.004970 1.900000
185.024610 1.100000
189.008760 0.800000
190.988780 1.100000
190.996430 1.200000
199.039760 1.100000
200.046600 0.800000
211.033230 2.300000
212.046890 0.900000
229.044390 2.100000
230.051710 0.900000
240.026890 1.000000
242.076690 0.900000
243.029830 2.000000
244.293790 1.000000
245.038680 2.800000
266.021700 1.100000
268.139590 1.300000
271.010740 0.900000
271.026460 2.000000
272.025050 1.800000
273.038910 2.900000
299.023190 9.100000
299.042970 1.100000
299.054530 1.300000
300.016080 5.900000
300.031800 0.900000
301.033050 100.000000
302.038570 18.600000
303.036620 1.700000
309.615940 1.100000
417.401250 0.900000
477.054080 14.300000
477.069430 22.600000

NAME: Quercetin-3-O-rhamnoside
SCANNUMBER: RIKEN_MONA_335
PRECURSORMZ: 449.107838
PRECURSORTYPE: [M+H]+
IONMODE: Positive
SPECTRUMTYPE: MS2
COLLISIONENERGY: 10 eV
FORMULA: C21H20O11
SMILES: C[C@@H]1O[C@@H](Oc2c(-c3ccc(O)c(O)c3)oc3cc(O)cc(O)c3c2=O)[C@H](O)[C@H](O)[C@H]1O
INCHI: InChI=1S/C21H20O11/c1-7-15(26)17(28)18(29)21(30-7)32-20-16(27)14-12(25)5-9(22)6-13(14)31-19(20)8-2-3-10(23)11(24)4-8/h2-7,15,17-18,21-26,28-29H,1H3/t7-,15-,17+,18+,21-/m0/s1
INCHIKEY: OXGUCUVFOIWWQJ-HQBVPOQASA-N
RETENTIONTIME: 4.366183
COMMENT: dataset=RIKEN_MONA; source_file=external_data/raw_libraries/RIKEN_MONA.xlsx; source_row=335; RT_sec=261.97098
Num Peaks: 17
85.011320 3.300000
85.029490 10.200000
112.154510 2.800000
129.054870 5.800000
229.043730 2.400000
287.055570 5.500000
287.062770 2.600000
303.018190 3.400000
303.050960 100.000000
304.042790 7.200000
304.061370 9.000000
305.046780 3.900000
314.197300 3.800000
316.052430 5.100000
369.057160 2.500000
449.048830 3.300000
449.109500 3.300000

NAME: Quercetin-3-O-rutinoside
SCANNUMBER: RIKEN_MONA_336
PRECURSORMZ: 611.160661
PRECURSORTYPE: [M+H]+
IONMODE: Positive
SPECTRUMTYPE: MS2
COLLISIONENERGY: 10 eV
FORMULA: C27H30O16
SMILES: C[C@@H]1O[C@@H](OC[C@H]2O[C@@H](Oc3c(-c4ccc(O)c(O)c4)oc4cc(O)cc(O)c4c3=O)[C@H](O)[C@@H](O)[C@@H]2O)[C@H](O)[C@H](O)[C@H]1O
INCHI: InChI=1S/C27H30O16/c1-8-17(32)20(35)22(37)26(40-8)39-7-15-18(33)21(36)23(38)27(42-15)43-25-19(34)16-13(31)5-10(28)6-14(16)41-24(25)9-2-3-11(29)12(30)4-9/h2-6,8,15,17-18,20-23,26-33,35-38H,7H2,1H3/t8-,15+,17-,18+,20+,21-,22+,23+,26+,27-/m0/s1
INCHIKEY: IKGXIBQEEMLURG-NVPNHPEKSA-N
RETENTIONTIME: 3.864533
COMMENT: dataset=RIKEN_MONA; source_file=external_data/raw_libraries/RIKEN_MONA.xlsx; source_row=336; RT_sec=231.87198
Num Peaks: 26
57.037180 0.500000
57.510940 0.700000
71.051890 0.600000
85.024360 2.100000
97.024450 0.500000
129.048810 0.800000
147.063860 1.200000
148.069050 0.500000
243.080610 0.600000
266.337620 0.600000
273.036130 0.700000
303.048160 100.000000
303.071810 7.200000
304.030330 3.200000
304.053410 20.700000
304.086610 1.000000
305.047670 1.600000
305.074550 0.600000
345.048800 0.500000
370.891110 1.200000
380.966310 0.600000
449.078340 0.500000
465.104710 11.300000
466.113430 4.200000
611.162110 10.000000
611.196780 1.100000

NAME: Quercetin-3-O-vicianoside
SCANNUMBER: RIKEN_MONA_337
PRECURSORMZ: 597.145011
PRECURSORTYPE: [M+H]+
IONMODE: Positive
SPECTRUMTYPE: MS2
COLLISIONENERGY: 10 eV
FORMULA: C26H28O16
SMILES: O=c1c(O[C@@H]2O[C@H](CO[C@@H]3OC[C@H](O)[C@H](O)[C@H]3O)[C@@H](O)[C@H](O)[C@H]2O)c(-c2ccc(O)c(O)c2)oc2cc(O)cc(O)c12
INCHI: InChI=1S/C26H28O16/c27-9-4-12(30)16-14(5-9)40-23(8-1-2-10(28)11(29)3-8)24(19(16)34)42-26-22(37)20(35)18(33)15(41-26)7-39-25-21(36)17(32)13(31)6-38-25/h1-5,13,15,17-18,20-22,25-33,35-37H,6-7H2/t13-,15+,17-,18+,20-,21+,22+,25-,26-/m0/s1
INCHIKEY: YNMFDPCLPIMRFD-KSPKLRDJSA-N
RETENTIONTIME: 3.699367
COMMENT: dataset=RIKEN_MONA; source_file=external_data/raw_libraries/RIKEN_MONA.xlsx; source_row=337; RT_sec=221.96202
Num Peaks: 33
85.030900 0.900000
97.019980 0.700000
104.040160 0.600000
115.035050 0.600000
115.043770 0.600000
127.043520 0.900000
134.061190 0.500000
146.054900 0.700000
146.242420 0.600000
157.057340 0.500000
163.061940 1.100000
192.649690 1.000000
201.057590 0.700000
229.074340 0.800000
241.062270 0.500000
241.070100 0.800000
259.082490 1.100000
277.089870 0.700000
303.008510 2.000000
303.050840 100.000000
304.053530 19.900000
305.045070 1.400000
305.057950 2.000000
339.050050 0.600000
345.060060 0.700000
411.076450 0.500000
435.084750 2.900000
435.101260 1.600000
437.104030 0.600000
465.101780 8.900000
465.131870 0.900000
477.103330 0.500000
597.145690 22.600000

NAME: Quercetin-3-O-xyloside
SCANNUMBER: RIKEN_MONA_338
PRECURSORMZ: 435.092188
PRECURSORTYPE: [M+H]+
IONMODE: Positive
SPECTRUMTYPE: MS2
COLLISIONENERGY: 10 eV
FORMULA: C20H18O11
SMILES: O=c1c(OC2OC[C@@H](O)[C@H](O)[C@H]2O)c(-c2ccc(O)c(O)c2)oc2cc(O)cc(O)c12
INCHI: InChI=1S/C20H18O11/c21-8-4-11(24)14-13(5-8)30-18(7-1-2-9(22)10(23)3-7)19(16(14)27)31-20-17(28)15(26)12(25)6-29-20/h1-5,12,15,17,20-26,28H,6H2/t12-,15+,17-,20?/m1/s1
INCHIKEY: PZZRDJXEMZMZFD-DUYPVGENSA-N
RETENTIONTIME: 4.171566
COMMENT: dataset=RIKEN_MONA; source_file=external_data/raw_libraries/RIKEN_MONA.xlsx; source_row=338; RT_sec=250.29396
Num Peaks: 23
111.005770 1.100000
133.050660 1.700000
149.027080 5.200000
153.023680 1.700000
203.031360 1.000000
229.051070 4.100000
247.074360 1.400000
257.046050 1.100000
274.053920 1.000000
275.048160 1.100000
285.028470 2.100000
299.389100 1.000000
303.011380 1.700000
303.048950 100.000000
304.048680 20.200000
305.058410 6.300000
310.204040 1.200000
356.962770 2.000000
395.977360 1.100000
396.979800 1.900000
398.001160 2.500000
435.087190 3.600000
435.101720 3.300000

NAME: Quercetin-4'-O-glucoside
SCANNUMBER: RIKEN_MONA_339
PRECURSORMZ: 465.102753
PRECURSORTYPE: [M+H]+
IONMODE: Positive
SPECTRUMTYPE: MS2
COLLISIONENERGY: 10 eV
FORMULA: C21H20O12
SMILES: O=c1c(O)c(-c2ccc(O[C@@H]3O[C@H](CO)[C@@H](O)[C@H](O)[C@H]3O)c(O)c2)oc2cc(O)cc(O)c12
INCHI: InChI=1S/C21H20O12/c22-6-13-15(26)17(28)19(30)21(33-13)32-11-2-1-7(3-9(11)24)20-18(29)16(27)14-10(25)4-8(23)5-12(14)31-20/h1-5,13,15,17,19,21-26,28-30H,6H2/t13-,15-,17+,19-,21-/m1/s1
INCHIKEY: OIUBYZLTFSLSBY-HMGRVEAOSA-N
RETENTIONTIME: 4.507534
COMMENT: dataset=RIKEN_MONA; source_file=external_data/raw_libraries/RIKEN_MONA.xlsx; source_row=339; RT_sec=270.45204
Num Peaks: 34
97.030240 0.600000
110.999340 0.800000
138.026030 0.600000
145.046620 1.000000
153.025120 1.200000
155.047380 0.700000
165.017520 2.200000
165.024980 1.000000
179.028200 0.600000
201.061430 2.400000
207.886840 0.500000
228.127720 0.500000
229.047760 0.800000
239.029190 0.500000
247.065190 0.900000
248.054020 0.600000
248.061970 0.900000
257.041660 1.500000
257.420230 0.800000
274.044490 0.800000
274.060460 0.600000
285.047030 0.500000
303.010740 1.900000
303.050350 100.000000
303.827060 0.600000
303.997010 0.800000
304.047390 11.400000
304.059630 13.100000
305.035520 0.600000
305.049680 0.600000
447.073940 0.500000
465.039430 1.000000
465.063840 1.200000
465.104580 29.100000

NAME: Quinine
SCANNUMBER: RIKEN_MONA_340
PRECURSORMZ: 325.191055
PRECURSORTYPE: [M+H]+
IONMODE: Positive
SPECTRUMTYPE: MS2
COLLISIONENERGY: 10 eV
FORMULA: C20H24N2O2
SMILES: C=C[C@@H]1CN2CC[C@@H]1C[C@H]2[C@H](O)c1ccnc2ccc(OC)cc12
INCHI: InChI=1S/C20H24N2O2/c1-3-13-12-22-9-7-14(13)10-19(22)20(23)16-6-8-21-18-5-4-15(24-2)11-17(16)18/h3-6,8,11,13-14,19-20,23H,1,7,9-10,12H2,2H3/t13-,14-,19+,20-/m1/s1
INCHIKEY: LOUPRKONTZGTKE-VPCNSNALSA-N
RETENTIONTIME: 3.387500
COMMENT: dataset=RIKEN_MONA; source_file=external_data/raw_libraries/RIKEN_MONA.xlsx; source_row=340; RT_sec=203.25
Num Peaks: 77
81.069210 2.100000
83.072170 0.600000
84.048800 0.700000
94.066830 0.600000
95.075450 1.300000
103.061640 0.600000
105.069180 1.100000
107.072810 0.500000
110.097180 0.900000
122.089440 1.000000
125.085080 0.600000
130.062090 0.500000
134.098270 2.400000
138.127910 1.300000
143.072020 1.800000
144.078020 0.600000
144.084240 1.100000
145.050430 0.500000
155.080150 0.600000
159.067980 0.700000
160.078780 8.900000
161.059420 0.700000
161.080610 1.900000
162.058590 1.200000
162.088010 0.700000
166.124920 3.600000
171.155440 0.500000
172.072420 1.700000
172.083590 1.400000
173.074950 1.300000
173.084080 2.300000
173.093840 0.500000
174.094220 4.100000
182.061370 0.700000
183.059390 0.500000
183.075380 0.600000
183.105880 0.700000
184.065730 0.700000
184.078000 1.700000
186.091460 2.800000
186.781190 0.600000
187.094410 0.900000
188.071320 1.200000
196.076510 0.700000
198.087170 1.700000
199.088670 0.600000
205.483080 0.600000
216.073500 0.700000
218.100250 0.600000
221.131420 0.600000
224.100910 1.200000
227.125000 0.600000
234.096820 0.500000
234.129100 0.600000
239.126560 0.600000
240.135530 0.600000
251.128170 0.500000
252.120770 0.800000
252.143300 0.500000
253.128490 1.700000
254.127980 0.600000
254.148280 0.700000
255.151030 1.000000
263.124360 0.700000
264.140050 0.800000
265.148040 0.500000
268.182190 0.500000
279.139310 0.500000
282.159150 0.600000
291.159180 0.500000
307.177920 1.400000
307.191740 2.700000
308.209170 0.800000
325.151210 1.900000
325.192260 100.000000
325.247250 1.000000
325.336060 0.700000

NAME: Rauwolscine
SCANNUMBER: RIKEN_MONA_341
PRECURSORMZ: 355.201619
PRECURSORTYPE: [M+H]+
IONMODE: Positive
SPECTRUMTYPE: MS2
COLLISIONENERGY: 10 eV
FORMULA: C21H26N2O3
SMILES: COC(=O)C1C(O)CCC2CN3CCc4c([nH]c5ccccc45)C3CC21
INCHI: InChI=1S/C21H26N2O3/c1-26-21(25)19-15-10-17-20-14(13-4-2-3-5-16(13)22-20)8-9-23(17)11-12(15)6-7-18(19)24/h2-5,12,15,17-19,22,24H,6-11H2,1H3
INCHIKEY: BLGXFZZNTVWLAY-UHFFFAOYSA-N
RETENTIONTIME: 4.004416
COMMENT: dataset=RIKEN_MONA; source_file=external_data/raw_libraries/RIKEN_MONA.xlsx; source_row=341; RT_sec=240.26496
Num Peaks: 19
117.070140 1.100000
127.054150 0.500000
134.096080 1.300000
143.073790 0.700000
144.081970 33.300000
145.085920 4.000000
162.092480 1.100000
180.103360 1.500000
192.102870 2.400000
194.118670 3.500000
206.116000 0.500000
212.128830 9.600000
224.129680 8.400000
225.132450 1.700000
323.169590 0.500000
337.190580 1.600000
355.155270 0.600000
355.202640 100.000000
355.256900 2.800000

NAME: Remerine
SCANNUMBER: RIKEN_MONA_342
PRECURSORMZ: 280.133205
PRECURSORTYPE: [M+H]+
IONMODE: Positive
SPECTRUMTYPE: MS2
COLLISIONENERGY: 10 eV
FORMULA: C18H17NO2
SMILES: CN1CCc2cc3c(c4c2C1Cc1ccccc1-4)OCO3
INCHI: InChI=1S/C18H17NO2/c1-19-7-6-12-9-15-18(21-10-20-15)17-13-5-3-2-4-11(13)8-14(19)16(12)17/h2-5,9,14H,6-8,10H2,1H3
INCHIKEY: JCTYWRARKVGOBK-UHFFFAOYSA-N
RETENTIONTIME: 4.893517
COMMENT: dataset=RIKEN_MONA; source_file=external_data/raw_libraries/RIKEN_MONA.xlsx; source_row=342; RT_sec=293.61102
Num Peaks: 34
165.069140 1.900000
178.064680 0.700000
178.077300 6.600000
179.085830 3.700000
189.071200 5.100000
190.077960 12.600000
191.057510 0.700000
191.085600 38.200000
192.090230 8.500000
193.095350 1.300000
193.104920 1.300000
194.105730 0.500000
200.066390 0.900000
201.070650 11.800000
202.076930 6.700000
203.085130 6.600000
206.070720 0.600000
207.080120 3.000000
218.073410 1.300000
219.080490 18.500000
220.085910 2.800000
221.057330 0.800000
221.091860 0.800000
221.100080 1.300000
231.075790 1.200000
231.085420 1.000000
232.083270 0.600000
249.091710 100.000000
249.136950 1.200000
250.094970 20.900000
251.086430 0.600000
251.100300 1.200000
280.133730 75.500000
280.180390 1.400000

NAME: Reserpic acid
SCANNUMBER: RIKEN_MONA_343
PRECURSORMZ: 401.207098
PRECURSORTYPE: [M+H]+
IONMODE: Positive
SPECTRUMTYPE: MS2
COLLISIONENERGY: 10 eV
FORMULA: C22H28N2O5
SMILES: COc1ccc2c3c([nH]c2c1)[C@H]1C[C@H]2[C@H](C[C@@H](O)[C@H](OC)[C@H]2C(=O)O)CN1CC3
INCHI: InChI=1S/C22H28N2O5/c1-28-12-3-4-13-14-5-6-24-10-11-7-18(25)21(29-2)19(22(26)27)15(11)9-17(24)20(14)23-16(13)8-12/h3-4,8,11,15,17-19,21,23,25H,5-7,9-10H2,1-2H3,(H,26,27)/t11-,15+,17-,18-,19+,21+/m1/s1
INCHIKEY: JVHNBFFHWQQPLL-WOXROFTLSA-N
RETENTIONTIME: 3.889867
COMMENT: dataset=RIKEN_MONA; source_file=external_data/raw_libraries/RIKEN_MONA.xlsx; source_row=343; RT_sec=233.39202
Num Peaks: 21
159.069840 2.100000
160.075270 0.700000
161.084260 0.500000
162.092150 0.800000
174.091960 26.000000
175.095310 4.100000
178.085680 0.700000
188.108510 2.900000
226.104830 0.700000
226.117650 0.500000
228.124190 5.200000
238.127260 0.500000
240.124910 11.500000
241.127370 2.200000
372.182590 1.300000
383.200530 0.900000
384.181400 1.200000
401.152280 0.700000
401.204960 100.000000
401.260470 2.000000
401.270290 0.900000

NAME: Resibufogenin
SCANNUMBER: RIKEN_MONA_344
PRECURSORMZ: 385.237336
PRECURSORTYPE: [M+H]+
IONMODE: Positive
SPECTRUMTYPE: MS2
COLLISIONENERGY: 10 eV
FORMULA: C24H32O4
SMILES: C[C@]12CC[C@H](O)C[C@H]1CC[C@@H]1[C@@H]2CC[C@]2(C)[C@@H](c3ccc(=O)oc3)C[C@H]3O[C@@]312
INCHI: InChI=1S/C24H32O4/c1-22-9-7-16(25)11-15(22)4-5-18-17(22)8-10-23(2)19(12-20-24(18,23)28-20)14-3-6-21(26)27-13-14/h3,6,13,15-20,25H,4-5,7-12H2,1-2H3/t15-,16+,17+,18-,19-,20-,22+,23-,24-/m1/s1
INCHIKEY: ATLJNLYIJOCWJE-CWMZOUAVSA-N
RETENTIONTIME: 7.563300
COMMENT: dataset=RIKEN_MONA; source_file=external_data/raw_libraries/RIKEN_MONA.xlsx; source_row=344; RT_sec=453.798
Num Peaks: 66
91.053040 1.000000
93.069910 1.000000
95.089040 0.600000
105.069600 1.900000
107.084610 1.200000
109.099090 0.500000
119.085750 2.000000
121.101210 1.100000
129.073460 0.500000
131.084180 1.500000
133.096880 0.600000
133.101960 1.300000
135.117000 0.800000
143.085100 1.800000
145.065990 0.500000
145.099730 2.400000
147.118480 2.200000
149.131610 1.400000
151.037490 0.800000
155.086180 0.600000
157.098500 0.900000
159.079800 1.300000
159.116650 3.000000
161.094330 0.900000
161.128720 1.200000
161.136690 1.100000
163.076260 0.600000
167.074810 0.700000
169.100720 0.800000
171.114990 1.000000
173.132000 1.600000
175.144650 0.600000
181.098630 0.900000
184.124450 0.500000
185.132370 1.200000
187.076200 0.800000
187.146650 0.600000
189.092330 0.600000
191.073610 0.700000
193.102570 0.600000
197.133670 0.900000
199.073380 0.500000
199.148030 1.100000
205.086170 1.200000
207.118240 0.600000
211.147490 0.800000
213.164140 0.600000
217.085690 0.600000
219.102310 0.800000
239.101810 0.700000
241.122680 1.400000
253.195630 3.900000
254.198910 0.900000
255.209870 3.300000
271.198580 0.900000
271.210420 1.600000
331.204280 0.700000
339.232240 1.400000
340.240390 0.700000
349.215060 5.100000
350.212740 0.700000
350.229430 0.700000
367.226990 6.300000
368.230470 1.600000
385.237820 100.000000
385.294560 2.200000

NAME: Retrorsine
SCANNUMBER: RIKEN_MONA_345
PRECURSORMZ: 352.175464
PRECURSORTYPE: [M+H]+
IONMODE: Positive
SPECTRUMTYPE: MS2
COLLISIONENERGY: 10 eV
FORMULA: C18H25NO6
SMILES: C/C=C1/C[C@@H](C)[C@](O)(CO)C(=O)OCC2=CCN3CC[C@@H](OC1=O)[C@@H]23
INCHI: InChI=1S/C18H25NO6/c1-3-12-8-11(2)18(23,10-20)17(22)24-9-13-4-6-19-7-5-14(15(13)19)25-16(12)21/h3-4,11,14-15,20,23H,5-10H2,1-2H3/b12-3-/t11-,14-,15-,18-/m1/s1
INCHIKEY: BCJMNZRQJAVDLD-CQRYIUNCSA-N
RETENTIONTIME: 3.225700
COMMENT: dataset=RIKEN_MONA; source_file=external_data/raw_libraries/RIKEN_MONA.xlsx; source_row=345; RT_sec=193.541999999999
Num Peaks: 17
91.053100 0.700000
94.065630 1.700000
108.081900 0.600000
110.096050 0.700000
120.081380 4.800000
121.083290 0.600000
122.096820 0.900000
123.081180 0.800000
138.090210 5.400000
151.070370 0.700000
276.160740 0.800000
277.163670 0.700000
322.169920 0.900000
324.179720 4.100000
352.126770 0.800000
352.177060 100.000000
352.230960 2.000000

NAME: Rhoeadine
SCANNUMBER: RIKEN_MONA_346
PRECURSORMZ: 384.144164
PRECURSORTYPE: [M+H]+
IONMODE: Positive
SPECTRUMTYPE: MS2
COLLISIONENERGY: 10 eV
FORMULA: C21H21NO6
SMILES: CO[C@H]1O[C@@H]2c3cc4c(cc3CCN(C)[C@@H]2c2ccc3c(c21)OCO3)OCO4
INCHI: InChI=1S/C21H21NO6/c1-22-6-5-11-7-15-16(26-9-25-15)8-13(11)19-18(22)12-3-4-14-20(27-10-24-14)17(12)21(23-2)28-19/h3-4,7-8,18-19,21H,5-6,9-10H2,1-2H3/t18-,19-,21+/m1/s1
INCHIKEY: XRBIHOLQAKITPP-SBHAEUEKSA-N
RETENTIONTIME: 4.648417
COMMENT: dataset=RIKEN_MONA; source_file=external_data/raw_libraries/RIKEN_MONA.xlsx; source_row=346; RT_sec=278.90502
Num Peaks: 92
130.061340 0.500000
131.050000 0.500000
148.045490 0.700000
149.061690 2.100000
161.058010 0.900000
163.037190 0.700000
163.077040 0.800000
175.067670 1.000000
175.078550 0.500000
176.070360 1.000000
177.069370 0.600000
188.070140 23.000000
189.078520 7.100000
190.049350 2.600000
190.086580 49.200000
191.046460 0.600000
191.087100 4.500000
191.094160 3.500000
204.064760 0.500000
205.062470 2.200000
205.074160 1.000000
206.066240 0.900000
207.077530 0.700000
217.053770 0.600000
217.067900 0.800000
221.062090 0.500000
233.060850 3.000000
234.062710 0.700000
235.075030 3.800000
236.076870 0.900000
237.053790 0.800000
245.065190 0.900000
247.073410 1.000000
248.078840 0.800000
249.055730 0.900000
250.089750 0.500000
251.073530 1.200000
261.044980 0.900000
261.057070 1.600000
262.061580 0.600000
262.077700 0.500000
262.090060 0.700000
263.070590 4.000000
263.079990 1.400000
264.073790 1.200000
275.074890 1.000000
277.074950 0.900000
278.084500 0.800000
279.071620 1.000000
290.085660 0.800000
291.066250 3.200000
291.081330 1.000000
293.079280 1.900000
294.079380 0.900000
294.113920 1.200000
303.043520 0.900000
303.063810 8.900000
304.053250 0.700000
304.070280 2.000000
304.094700 0.900000
308.064360 0.600000
308.099820 0.900000
309.074710 1.500000
319.062930 0.500000
319.078430 0.700000
320.064270 0.800000
320.090030 10.700000
321.068330 1.500000
321.086580 2.700000
321.102630 1.800000
322.086910 1.300000
322.109340 0.900000
323.105530 0.800000
324.133730 0.700000
334.106690 13.400000
335.102480 1.200000
335.120210 3.500000
336.072660 0.500000
336.114620 0.800000
337.076080 0.600000
337.089630 1.000000
337.101530 0.700000
352.063630 0.800000
352.116550 97.700000
352.169400 0.500000
353.119600 23.300000
354.123050 3.100000
366.131810 3.600000
366.150630 0.600000
384.086490 0.800000
384.141910 100.000000
384.197570 2.200000

NAME: Rhynchophylline
SCANNUMBER: RIKEN_MONA_347
PRECURSORMZ: 385.212184
PRECURSORTYPE: [M+H]+
IONMODE: Positive
SPECTRUMTYPE: MS2
COLLISIONENERGY: 10 eV
FORMULA: C22H28N2O4
SMILES: CC[C@H]1CN2CC[C@]3(C(O)=Nc4ccccc43)[C@@H]2C[C@@H]1/C(=C\OC)C(=O)OC
INCHI: InChI=1S/C22H28N2O4/c1-4-14-12-24-10-9-22(17-7-5-6-8-18(17)23-21(22)26)19(24)11-15(14)16(13-27-2)20(25)28-3/h5-8,13-15,19H,4,9-12H2,1-3H3,(H,23,26)/b16-13+/t14-,15-,19-,22+/m0/s1
INCHIKEY: DAXYUDFNWXHGBE-KAXDATADSA-N
RETENTIONTIME: 4.901633
COMMENT: dataset=RIKEN_MONA; source_file=external_data/raw_libraries/RIKEN_MONA.xlsx; source_row=347; RT_sec=294.09798
Num Peaks: 27
70.065220 0.500000
108.080260 0.600000
110.095570 2.000000
129.053220 0.700000
132.044650 0.700000
132.080580 2.000000
142.064500 2.100000
144.079070 1.200000
153.090060 0.500000
158.061780 0.700000
160.075120 14.700000
161.078450 1.600000
171.101990 0.900000
194.117340 0.600000
213.101430 1.200000
215.117970 2.400000
226.143920 2.400000
241.134870 0.700000
265.135310 1.100000
267.147030 2.300000
269.165100 5.400000
270.171230 0.800000
353.185120 6.100000
354.183440 1.000000
354.195560 0.700000
385.211640 100.000000
385.269440 2.800000

NAME: Rinderine
SCANNUMBER: RIKEN_MONA_348
PRECURSORMZ: 300.180549
PRECURSORTYPE: [M+H]+
IONMODE: Positive
SPECTRUMTYPE: MS2
COLLISIONENERGY: 10 eV
FORMULA: C15H25NO5
SMILES: CC(C)[C@@](O)(C(=O)OCC1=CCN2CC[C@H](O)[C@@H]12)[C@@H](C)O
INCHI: InChI=1S/C15H25NO5/c1-9(2)15(20,10(3)17)14(19)21-8-11-4-6-16-7-5-12(18)13(11)16/h4,9-10,12-13,17-18,20H,5-8H2,1-3H3/t10-,12+,13-,15+/m1/s1
INCHIKEY: SFVVQRJOGUKCEG-ZRQNBYAXSA-N
RETENTIONTIME: 2.749600
COMMENT: dataset=RIKEN_MONA; source_file=external_data/raw_libraries/RIKEN_MONA.xlsx; source_row=348; RT_sec=164.976
Num Peaks: 15
80.050380 0.500000
82.064450 1.000000
94.066670 3.300000
95.073980 1.600000
96.081470 3.400000
108.078040 0.900000
120.081520 7.300000
121.087930 0.600000
138.091750 28.200000
139.097850 6.000000
156.102200 14.800000
157.103900 2.000000
256.151610 0.600000
300.181610 100.000000
300.230530 2.100000

NAME: Rosmarinic acid
SCANNUMBER: RIKEN_MONA_349
PRECURSORMZ: 359.077241
PRECURSORTYPE: [M-H]-
IONMODE: Negative
SPECTRUMTYPE: MS2
COLLISIONENERGY: 10 eV
FORMULA: C18H16O8
SMILES: O=C(/C=C/c1ccc(O)c(O)c1)OC(Cc1ccc(O)c(O)c1)C(=O)O
INCHI: InChI=1S/C18H16O8/c19-12-4-1-10(7-14(12)21)3-6-17(23)26-16(18(24)25)9-11-2-5-13(20)15(22)8-11/h1-8,16,19-22H,9H2,(H,24,25)/b6-3+
INCHIKEY: DOUMFZQKYFQNTF-ZZXKWVIFSA-N
RETENTIONTIME: 4.633400
COMMENT: dataset=RIKEN_MONA; source_file=external_data/raw_libraries/RIKEN_MONA.xlsx; source_row=349; RT_sec=278.004
Num Peaks: 23
77.038060 0.500000
105.030820 0.800000
115.256360 0.600000
123.042330 4.200000
133.028380 14.600000
133.887240 0.600000
135.029770 0.600000
135.044460 9.100000
135.055860 0.800000
151.040950 1.300000
159.051240 0.500000
161.022840 100.000000
162.025790 8.500000
163.025890 1.300000
178.024660 0.900000
179.033050 11.900000
180.037930 2.000000
197.043840 29.700000
198.051060 2.100000
223.020940 1.300000
223.363890 0.500000
357.084350 0.600000
359.075620 15.500000

NAME: Saikosaponin C
SCANNUMBER: RIKEN_MONA_350
PRECURSORMZ: 927.531178
PRECURSORTYPE: [M+H]+
IONMODE: Positive
SPECTRUMTYPE: MS2
COLLISIONENERGY: 10 eV
FORMULA: C48H78O17
SMILES: CC1OC(OC2C(COC3OC(CO)C(O)C(O)C3O)OC(OC3CCC4(C)C(CCC5(C)C4C=CC4=C6CC(C)(C)CCC6(CO)C(O)CC45C)C3(C)C)C(O)C2O)C(O)C(O)C1O
INCHI: InChI=1S/C48H78O17/c1-22-31(52)33(54)37(58)41(61-22)65-39-26(20-60-40-36(57)34(55)32(53)25(19-49)62-40)63-42(38(59)35(39)56)64-30-12-13-45(6)27(44(30,4)5)11-14-46(7)28(45)10-9-23-24-17-43(2,3)15-16-48(24,21-50)29(51)18-47(23,46)8/h9-10,22,25-42,49-59H,11-21H2,1-8H3
INCHIKEY: PYJMYPPFWASOJX-UHFFFAOYSA-N
RETENTIONTIME: 6.286016
COMMENT: dataset=RIKEN_MONA; source_file=external_data/raw_libraries/RIKEN_MONA.xlsx; source_row=350; RT_sec=377.16096
Num Peaks: 47
111.015390 11.000000
121.097310 5.200000
127.036870 5.200000
127.230690 5.200000
129.048110 11.700000
129.060350 7.400000
163.151950 5.200000
187.152020 5.500000
255.080080 6.800000
293.125060 6.800000
308.804570 5.200000
309.095830 6.100000
309.118260 26.200000
309.138850 5.500000
327.120180 5.200000
345.959200 7.400000
399.537690 6.500000
403.319700 12.600000
403.343750 12.600000
404.333980 5.200000
409.340700 5.500000
421.344420 100.000000
422.344120 5.800000
422.360350 12.600000
423.332030 5.200000
471.174530 6.100000
471.196690 5.200000
489.163940 6.800000
572.317200 5.500000
583.426150 19.400000
585.210510 5.200000
601.424620 7.100000
603.423340 6.500000
604.448360 5.800000
622.238400 5.800000
647.834350 5.500000
746.448730 5.200000
748.442870 8.100000
763.451350 5.200000
765.454350 5.200000
765.499510 5.200000
765.533510 5.500000
846.495060 5.200000
856.035830 6.500000
878.494380 5.800000
909.485350 5.200000
927.540890 57.900000

NAME: Saikosaponin D
SCANNUMBER: RIKEN_MONA_351
PRECURSORMZ: 781.473269
PRECURSORTYPE: [M+H]+
IONMODE: Positive
SPECTRUMTYPE: MS2
COLLISIONENERGY: 10 eV
FORMULA: C42H68O13
SMILES: C[C@H]1O[C@@H](O[C@H]2CC[C@@]3(C)[C@@H](CC[C@]4(C)[C@@H]3C=CC35OC[C@@]6(CCC(C)(C)CC36)C(O)C[C@]54C)[C@]2(C)CO)[C@H](O)C(OC2OC(CO)C(O)C(O)[C@H]2O)C1O
INCHI: InChI=1S/C42H68O13/c1-21-28(46)33(55-34-31(49)30(48)29(47)22(18-43)53-34)32(50)35(52-21)54-27-10-11-37(4)23(38(27,5)19-44)8-12-39(6)24(37)9-13-42-25-16-36(2,3)14-15-41(25,20-51-42)26(45)17-40(39,42)7/h9,13,21-35,43-50H,8,10-12,14-20H2,1-7H3/t21-,22?,23-,24-,25?,26?,27+,28?,29?,30?,31-,32-,33?,34?,35+,37+,38+,39-,40+,41-,42?/m1/s1
INCHIKEY: KYWSCMDFVARMPN-DISCDMJRSA-N
RETENTIONTIME: 8.253117
COMMENT: dataset=RIKEN_MONA; source_file=external_data/raw_libraries/RIKEN_MONA.xlsx; source_row=351; RT_sec=495.187019999999
Num Peaks: 84
75.043690 2.800000
86.009520 3.400000
109.105320 2.900000
119.083380 2.900000
135.111370 3.300000
145.057250 2.800000
163.068310 2.800000
173.129790 3.100000
175.060070 4.300000
175.148880 16.400000
178.166750 2.900000
187.146010 3.400000
196.593020 2.800000
199.074340 2.800000
201.164350 2.800000
205.155780 6.200000
207.166840 3.300000
215.180220 12.400000
218.168950 2.900000
219.072910 3.100000
219.176180 4.000000
241.193740 3.400000
251.187100 3.400000
253.204850 3.400000
254.191100 5.900000
259.199070 2.900000
259.219940 5.000000
261.186130 2.900000
273.108250 3.600000
281.231050 2.900000
283.200810 6.000000
285.222530 2.800000
297.227660 2.800000
309.117250 4.000000
309.217800 2.900000
321.247010 2.800000
351.224460 3.800000
379.304080 4.600000
397.299220 3.800000
398.304260 3.600000
407.243870 2.800000
407.326780 3.400000
407.341130 9.000000
412.315060 3.600000
417.902220 5.200000
419.316130 2.800000
419.340850 2.900000
421.116490 3.100000
425.325410 4.300000
425.346280 6.400000
426.342560 5.300000
426.376890 2.800000
437.333010 11.700000
437.351010 3.100000
438.341490 2.800000
438.367370 2.900000
455.305630 2.800000
455.353270 100.000000
455.393280 2.800000
456.045900 4.500000
456.192570 3.300000
456.351350 26.000000
456.371980 5.900000
457.343050 2.800000
473.364200 19.800000
473.387330 6.500000
474.324650 3.400000
490.277130 3.400000
491.769170 2.900000
584.046810 4.100000
601.388980 2.800000
601.417790 6.000000
602.483280 2.800000
617.417240 3.300000
619.401920 4.000000
620.349300 3.400000
635.415770 3.100000
745.411250 3.400000
746.448000 2.900000
763.471370 8.800000
764.487670 6.700000
766.489990 2.900000
781.478270 44.200000
781.645570 2.900000

NAME: Saikosaponin a
SCANNUMBER: RIKEN_MONA_352
PRECURSORMZ: 781.473269
PRECURSORTYPE: [M+H]+
IONMODE: Positive
SPECTRUMTYPE: MS2
COLLISIONENERGY: 10 eV
FORMULA: C42H68O13
SMILES: C[C@H]1O[C@@H](O[C@H]2CC[C@@]3(C)[C@@H](CC[C@]4(C)[C@@H]3C=C[C@]35OC[C@@]6(CCC(C)(C)C[C@H]63)[C@@H](O)C[C@]54C)[C@]2(C)CO)[C@H](O)[C@@H](O[C@@H]2O[C@H](CO)[C@@H](O)[C@H](O)[C@H]2O)[C@H]1O
INCHI: InChI=1S/C42H68O13/c1-21-28(46)33(55-34-31(49)30(48)29(47)22(18-43)53-34)32(50)35(52-21)54-27-10-11-37(4)23(38(27,5)19-44)8-12-39(6)24(37)9-13-42-25-16-36(2,3)14-15-41(25,20-51-42)26(45)17-40(39,42)7/h9,13,21-35,43-50H,8,10-12,14-20H2,1-7H3/t21-,22-,23-,24-,25-,26+,27+,28+,29-,30+,31-,32-,33+,34+,35+,37+,38+,39-,40+,41-,42+/m1/s1
INCHIKEY: KYWSCMDFVARMPN-MSSMMRRTSA-N
RETENTIONTIME: 7.157100
COMMENT: dataset=RIKEN_MONA; source_file=external_data/raw_libraries/RIKEN_MONA.xlsx; source_row=352; RT_sec=429.426
Num Peaks: 119
75.048720 1.400000
87.037990 1.600000
135.086290 2.000000
145.047990 1.300000
149.128360 3.200000
155.083650 1.600000
163.060580 1.600000
167.104400 1.300000
171.117510 1.900000
173.136580 1.700000
176.154170 1.300000
187.138500 1.400000
187.150570 3.500000
188.117110 2.000000
189.139010 1.300000
190.127910 1.500000
195.140120 2.600000
196.140780 2.000000
201.163700 1.600000
201.175370 1.300000
204.141310 1.600000
209.135670 1.300000
214.178760 2.000000
215.177260 1.300000
216.177730 1.300000
217.196230 2.600000
225.156980 1.300000
225.166200 1.300000
225.184510 1.300000
227.188160 2.000000
230.188950 1.400000
237.150120 2.200000
239.186890 3.200000
241.181090 1.300000
241.195860 4.700000
245.189450 1.300000
250.087070 1.500000
251.188450 1.500000
251.767030 1.400000
252.192460 3.200000
253.201110 5.500000
254.194030 1.700000
255.167400 1.600000
255.213300 1.500000
259.198150 1.400000
259.214260 4.600000
265.201600 1.600000
267.215270 4.500000
268.222230 1.500000
272.201480 1.400000
281.898470 1.600000
285.213990 1.400000
285.226780 1.600000
286.227260 3.800000
287.193050 1.300000
295.235440 1.300000
309.117680 1.300000
311.113190 1.400000
317.232850 1.300000
345.271210 1.300000
346.005430 1.600000
350.280460 1.400000
380.859340 2.100000
389.328370 1.600000
393.303130 1.500000
397.304960 1.400000
398.331050 1.600000
401.313570 2.400000
401.325620 4.600000
407.332790 10.400000
407.355500 1.400000
408.370670 1.600000
410.371430 1.700000
419.308440 3.200000
419.319370 5.200000
419.338040 18.100000
419.406650 1.600000
420.325740 3.500000
420.350070 1.700000
437.295470 2.100000
437.332180 29.300000
437.347020 36.200000
438.337770 18.100000
438.359800 13.200000
439.347020 1.800000
440.351750 2.200000
453.336520 1.300000
455.281490 1.300000
455.301570 1.600000
455.353670 100.000000
455.403750 1.600000
456.312620 1.600000
456.349950 29.600000
457.354190 6.400000
457.509800 1.400000
473.358670 6.100000
474.365510 3.500000
474.380950 2.500000
530.806700 1.600000
535.372070 2.000000
583.390440 1.400000
599.813420 1.600000
603.424680 1.600000
617.421940 1.400000
619.404110 6.300000
619.423950 3.400000
619.443660 2.800000
620.424500 1.500000
636.446840 1.600000
729.378910 1.600000
732.708980 1.500000
745.475830 3.300000
763.456540 1.300000
763.492310 4.900000
764.453610 1.400000
781.392700 2.000000
781.461850 25.000000
781.488530 17.300000
781.529300 1.400000

NAME: Saikosaponin b2
SCANNUMBER: RIKEN_MONA_353
PRECURSORMZ: 781.473269
PRECURSORTYPE: [M+H]+
IONMODE: Positive
SPECTRUMTYPE: MS2
COLLISIONENERGY: 10 eV
FORMULA: C42H68O13
SMILES: C[C@H]1O[C@@H](O[C@H]2CC[C@@]3(C)[C@@H](CC[C@]4(C)[C@@H]3C=CC3=C5CC(C)(C)CC[C@]5(CO)[C@H](O)C[C@]34C)[C@]2(C)CO)[C@H](O)[C@@H](O[C@@H]2O[C@H](CO)[C@@H](O)[C@H](O)[C@H]2O)[C@H]1O
INCHI: InChI=1S/C42H68O13/c1-21-29(47)34(55-35-32(50)31(49)30(48)24(18-43)53-35)33(51)36(52-21)54-28-11-12-38(4)25(39(28,5)19-44)10-13-40(6)26(38)9-8-22-23-16-37(2,3)14-15-42(23,20-45)27(46)17-41(22,40)7/h8-9,21,24-36,43-51H,10-20H2,1-7H3/t21-,24-,25-,26-,27-,28+,29+,30-,31+,32-,33-,34+,35+,36+,38+,39+,40-,41-,42-/m1/s1
INCHIKEY: WRYJYFCCMSVEPQ-ORAXXRKOSA-N
RETENTIONTIME: 7.100800
COMMENT: dataset=RIKEN_MONA; source_file=external_data/raw_libraries/RIKEN_MONA.xlsx; source_row=353; RT_sec=426.048
Num Peaks: 82
123.110710 2.300000
139.116240 2.600000
143.087860 2.800000
145.037310 2.400000
147.066010 2.300000
149.130260 2.300000
150.138030 4.400000
157.103360 2.600000
163.063340 2.700000
177.158870 2.700000
187.159970 3.000000
193.161830 5.700000
199.057950 3.200000
199.147540 3.400000
201.166720 2.300000
205.152250 2.700000
205.168370 2.300000
206.152150 2.400000
206.169200 2.600000
209.079150 2.300000
209.130840 3.500000
219.172640 3.000000
223.175610 2.700000
225.162770 2.600000
227.170240 2.400000
233.190660 2.700000
241.196430 8.500000
243.176100 2.700000
257.178160 3.100000
257.194550 2.700000
266.201870 2.800000
267.214320 2.700000
270.228640 3.400000
271.206510 2.300000
271.233400 2.700000
285.232570 2.400000
293.233000 2.700000
318.824100 3.600000
337.272220 2.300000
361.303440 2.400000
388.318940 2.300000
398.318730 2.700000
400.383180 2.300000
401.329680 2.300000
407.342590 10.000000
408.312130 2.800000
408.332860 2.300000
419.314270 3.000000
419.343410 3.200000
420.315120 2.400000
421.348820 2.800000
425.321690 6.600000
437.308500 2.400000
437.331050 18.700000
437.353640 17.300000
438.332460 5.700000
440.350980 5.000000
443.359410 2.700000
455.302090 3.100000
455.318540 8.800000
455.350370 100.000000
456.294800 3.100000
456.355830 46.200000
503.354740 3.000000
583.374270 4.700000
601.392580 6.900000
602.411380 3.100000
603.406130 2.300000
618.417360 2.300000
619.430730 5.000000
620.412170 2.400000
745.472840 5.900000
763.445920 2.400000
763.468690 2.400000
763.498540 2.700000
764.418950 2.400000
764.445130 7.400000
764.472230 2.400000
765.390260 2.700000
780.471250 4.900000
781.455810 4.700000
781.501650 4.900000

NAME: Sakuranetin
SCANNUMBER: RIKEN_MONA_354
PRECURSORMZ: 287.091400
PRECURSORTYPE: [M+H]+
IONMODE: Positive
SPECTRUMTYPE: MS2
COLLISIONENERGY: 10 eV
FORMULA: C16H14O5
SMILES: COc1cc(O)c2c(c1)O[C@H](c1ccc(O)cc1)CC2=O
INCHI: InChI=1S/C16H14O5/c1-20-11-6-12(18)16-13(19)8-14(21-15(16)7-11)9-2-4-10(17)5-3-9/h2-7,14,17-18H,8H2,1H3/t14-/m0/s1
INCHIKEY: DJOJDHGQRNZXQQ-AWEZNQCLSA-N
RETENTIONTIME: 7.420833
COMMENT: dataset=RIKEN_MONA; source_file=external_data/raw_libraries/RIKEN_MONA.xlsx; source_row=354; RT_sec=445.24998
Num Peaks: 18
67.018530 0.900000
91.051690 1.500000
91.059230 0.600000
107.046190 0.700000
111.042480 1.800000
119.048130 7.600000
123.042340 1.500000
147.044510 28.400000
148.047910 3.000000
152.010530 0.500000
165.055890 0.900000
167.033890 56.800000
168.037220 6.400000
169.041200 0.800000
181.066020 0.800000
287.054170 0.500000
287.093320 100.000000
287.142730 1.300000

NAME: Sanguinarine
SCANNUMBER: RIKEN_MONA_355
PRECURSORMZ: 332.091186
PRECURSORTYPE: [M]+
IONMODE: Positive
SPECTRUMTYPE: MS2
COLLISIONENERGY: 10 eV
FORMULA: [C20H14NO4]+
SMILES: C[n+]1cc2c3c(ccc2c2ccc4cc5c(cc4c21)OCO5)OCO3
INCHI: InChI=1S/C20H14NO4/c1-21-8-15-12(4-5-16-20(15)25-10-22-16)13-3-2-11-6-17-18(24-9-23-17)7-14(11)19(13)21/h2-8H,9-10H2,1H3/q+1
INCHIKEY: INVGWHRKADIJHF-UHFFFAOYSA-N
RETENTIONTIME: 4.851700
COMMENT: dataset=RIKEN_MONA; source_file=external_data/raw_libraries/RIKEN_MONA.xlsx; source_row=355; RT_sec=291.102
Num Peaks: 36
189.066600 0.600000
203.070790 0.500000
215.074920 1.200000
216.080380 1.700000
216.089710 0.900000
217.089870 2.000000
218.089610 0.800000
218.098180 2.000000
219.097200 0.700000
233.084050 0.900000
244.077670 2.100000
245.084900 0.600000
246.089370 2.600000
246.100510 1.700000
247.089780 0.800000
247.101170 0.500000
248.105320 1.000000
261.079530 1.100000
274.071110 1.300000
274.087160 10.200000
275.078220 1.000000
275.095280 2.300000
276.101170 1.900000
288.065060 0.700000
289.072270 1.300000
302.082860 3.900000
303.088470 1.300000
304.096710 7.700000
305.100710 1.500000
316.055240 0.700000
317.068570 6.900000
318.069700 1.000000
330.073460 1.600000
332.043330 0.800000
332.058010 0.900000
332.091610 100.000000

NAME: Schizandrin
SCANNUMBER: RIKEN_MONA_356
PRECURSORMZ: 433.222080
PRECURSORTYPE: [M+H]+
IONMODE: Positive
SPECTRUMTYPE: MS2
COLLISIONENERGY: 10 eV
FORMULA: C24H32O7
SMILES: COc1cc2c(c(OC)c1OC)-c1c(cc(OC)c(OC)c1OC)CC(C)(O)C(C)C2
INCHI: InChI=1S/C24H32O7/c1-13-9-14-10-16(26-3)20(28-5)22(30-7)18(14)19-15(12-24(13,2)25)11-17(27-4)21(29-6)23(19)31-8/h10-11,13,25H,9,12H2,1-8H3
INCHIKEY: YEFOAORQXAOVJQ-UHFFFAOYSA-N
RETENTIONTIME: 7.594050
COMMENT: dataset=RIKEN_MONA; source_file=external_data/raw_libraries/RIKEN_MONA.xlsx; source_row=356; RT_sec=455.643
Num Peaks: 147
131.084400 0.900000
212.111310 0.500000
240.071010 1.000000
247.095580 0.500000
256.106870 0.800000
257.079620 0.800000
269.078950 0.700000
270.084840 0.700000
271.098940 0.700000
272.103610 1.700000
277.124240 0.800000
282.103640 0.500000
283.092900 1.300000
285.066680 0.700000
285.101720 0.900000
286.111510 0.500000
286.121370 0.800000
288.092040 0.800000
288.108180 0.800000
291.130280 0.500000
292.107450 0.500000
294.117310 1.000000
296.102750 0.700000
298.119380 0.600000
299.084960 0.800000
299.120480 2.000000
300.091430 0.600000
300.101230 1.200000
300.134310 0.600000
301.086940 0.800000
307.130250 2.500000
308.104640 0.600000
308.142550 0.500000
309.143310 0.600000
310.123660 0.600000
310.158200 0.500000
311.119380 0.500000
311.142360 0.600000
312.100430 0.800000
312.139400 0.500000
313.108280 3.500000
313.135190 0.500000
314.104950 0.600000
314.120910 1.200000
315.120480 2.900000
315.133540 1.100000
316.093200 1.200000
316.124850 1.500000
317.106870 1.500000
317.128080 0.800000
322.112460 0.800000
322.124360 1.100000
322.154050 2.800000
323.126070 0.900000
323.168330 0.500000
324.132750 0.500000
324.143340 1.100000
324.175510 0.600000
325.154300 0.700000
327.113920 1.500000
327.160430 0.900000
328.132750 6.500000
329.098450 1.400000
329.132140 2.000000
329.148680 1.100000
330.141390 3.700000
331.118130 3.800000
331.151860 1.100000
332.117580 1.800000
332.128880 1.500000
332.145720 0.700000
333.129670 1.500000
337.127110 0.700000
337.149110 1.600000
338.093630 0.600000
338.149290 9.800000
339.142210 0.900000
339.155730 1.000000
340.130980 0.900000
341.143590 1.200000
341.171510 0.500000
341.186220 0.900000
342.144230 7.100000
343.116820 1.300000
343.136570 1.400000
343.166750 1.100000
344.123470 1.300000
344.137210 0.800000
345.113770 0.600000
345.130770 3.200000
346.140440 11.100000
347.146330 4.100000
348.160490 0.700000
348.203580 0.700000
350.156490 0.500000
351.165740 0.500000
352.156100 1.000000
352.173430 0.600000
353.136510 1.000000
353.149660 2.100000
353.160800 3.100000
353.179170 6.300000
354.137540 1.600000
354.167480 2.300000
355.141300 0.800000
355.153960 1.700000
357.163150 0.700000
357.176850 1.000000
358.118160 0.700000
358.136630 1.600000
358.151640 1.200000
358.179530 1.600000
359.143070 1.700000
359.157290 2.200000
360.146060 0.500000
361.159030 1.200000
368.144680 0.700000
368.159060 0.700000
369.141720 0.800000
369.170780 11.400000
370.171880 3.600000
371.160920 0.700000
371.180480 0.800000
372.162200 1.100000
373.162020 3.500000
374.162960 1.400000
374.181980 0.800000
383.186190 1.300000
384.192600 35.700000
385.153470 1.200000
385.169340 2.900000
385.193420 7.400000
385.207490 4.200000
386.171910 2.100000
386.186800 2.000000
389.203000 1.200000
400.183140 7.200000
401.202000 2.000000
415.209900 100.000000
416.213780 28.100000
417.183690 0.800000
417.219300 2.700000
418.217930 0.500000
432.182040 1.100000
432.211180 3.900000
433.168000 0.600000
433.216980 15.300000

NAME: Scoparone
SCANNUMBER: RIKEN_MONA_357
PRECURSORMZ: 207.065185
PRECURSORTYPE: [M+H]+
IONMODE: Positive
SPECTRUMTYPE: MS2
COLLISIONENERGY: 10 eV
FORMULA: C11H10O4
SMILES: COc1cc2ccc(=O)oc2cc1OC
INCHI: InChI=1S/C11H10O4/c1-13-9-5-7-3-4-11(12)15-8(7)6-10(9)14-2/h3-6H,1-2H3
INCHIKEY: GUAFOGOEJLSQBT-UHFFFAOYSA-N
RETENTIONTIME: 5.000916
COMMENT: dataset=RIKEN_MONA; source_file=external_data/raw_libraries/RIKEN_MONA.xlsx; source_row=357; RT_sec=300.05496
Num Peaks: 25
79.054710 0.600000
91.054050 1.300000
107.049350 4.100000
108.057570 1.000000
121.065090 0.700000
134.033950 0.500000
135.044920 1.900000
136.051190 1.900000
146.035350 2.900000
147.040910 0.800000
148.050610 2.800000
151.074920 15.700000
152.076970 1.300000
162.027210 0.600000
163.037600 3.300000
163.043990 3.000000
164.047240 1.100000
179.069820 5.500000
191.021090 1.000000
191.034000 8.000000
192.039830 6.300000
193.042620 0.600000
206.058490 2.800000
207.065000 100.000000
207.106160 1.900000

NAME: Seco-isolariciresinol diglucoside
SCANNUMBER: RIKEN_MONA_358
PRECURSORMZ: 687.285862
PRECURSORTYPE: [M+H]+
IONMODE: Positive
SPECTRUMTYPE: MS2
COLLISIONENERGY: 10 eV
FORMULA: C32H46O16
SMILES: COc1cc(CC(COC2OC(CO)C(O)C(O)C2O)C(COC2OC(CO)C(O)C(O)C2O)Cc2ccc(O)c(OC)c2)ccc1O
INCHI: InChI=1S/C32H46O16/c1-43-21-9-15(3-5-19(21)35)7-17(13-45-31-29(41)27(39)25(37)23(11-33)47-31)18(8-16-4-6-20(36)22(10-16)44-2)14-46-32-30(42)28(40)26(38)24(12-34)48-32/h3-6,9-10,17-18,23-42H,7-8,11-14H2,1-2H3
INCHIKEY: SBVBJPHMDABKJV-UHFFFAOYSA-N
RETENTIONTIME: 3.670633
COMMENT: dataset=RIKEN_MONA; source_file=external_data/raw_libraries/RIKEN_MONA.xlsx; source_row=358; RT_sec=220.23798
Num Peaks: 94
120.932750 2.600000
121.062420 3.900000
123.083620 1.800000
126.860120 2.500000
127.035510 2.600000
127.048780 3.100000
131.041630 3.100000
133.064410 8.300000
135.087510 2.700000
137.060970 52.900000
138.068300 10.000000
145.050220 3.800000
147.087400 3.500000
149.066010 1.900000
151.070470 2.100000
151.075700 5.500000
163.060230 4.600000
163.077880 29.000000
176.078720 4.900000
177.053880 3.400000
189.089250 7.900000
193.087390 2.500000
194.098560 2.400000
203.094700 3.800000
203.112950 4.400000
206.098310 4.000000
207.094920 1.800000
207.106230 3.500000
208.119670 2.700000
219.104580 13.300000
220.102660 2.100000
220.113620 2.700000
231.111790 1.800000
239.121950 3.200000
244.291600 2.300000
265.124690 2.100000
273.105530 2.300000
276.996400 2.100000
293.116270 2.400000
295.113070 5.400000
295.130310 17.300000
296.127320 3.400000
298.161620 4.600000
314.307280 1.800000
325.104280 1.800000
325.114350 1.900000
325.174070 1.800000
326.139680 2.600000
327.103700 2.100000
327.130400 3.300000
327.159790 100.000000
328.155000 2.800000
328.167970 4.900000
328.182220 5.300000
329.164490 3.400000
334.731320 2.800000
339.156560 3.000000
344.160860 11.100000
344.169310 4.300000
345.144170 2.400000
345.169400 66.900000
345.185730 13.100000
346.178250 14.200000
351.160280 2.100000
355.155850 1.800000
363.105160 2.600000
363.181880 54.100000
363.852360 2.100000
364.170900 1.800000
364.190160 6.100000
364.206020 1.800000
365.183070 4.400000
367.154210 2.500000
369.163820 2.200000
385.710570 1.900000
409.157530 1.800000
441.189240 1.800000
471.197970 2.100000
506.195680 10.000000
506.208160 4.200000
507.217830 6.300000
524.225650 5.000000
524.252990 1.900000
524.938780 2.000000
525.226320 4.000000
525.243590 14.000000
526.242740 1.800000
526.259520 2.500000
539.019170 2.100000
686.266660 8.800000
686.288210 17.500000
687.263120 13.700000
687.282590 8.100000
687.315370 12.600000

NAME: Secoisolariciresinol
SCANNUMBER: RIKEN_MONA_359
PRECURSORMZ: 363.180215
PRECURSORTYPE: [M+H]+
IONMODE: Positive
SPECTRUMTYPE: MS2
COLLISIONENERGY: 10 eV
FORMULA: C20H26O6
SMILES: COc1cc(C[C@@H](CO)[C@H](CO)Cc2ccc(O)c(OC)c2)ccc1O
INCHI: InChI=1S/C20H26O6/c1-25-19-9-13(3-5-17(19)23)7-15(11-21)16(12-22)8-14-4-6-18(24)20(10-14)26-2/h3-6,9-10,15-16,21-24H,7-8,11-12H2,1-2H3/t15-,16-/m0/s1
INCHIKEY: PUETUDUXMCLALY-HOTGVXAUSA-N
RETENTIONTIME: 4.764250
COMMENT: dataset=RIKEN_MONA; source_file=external_data/raw_libraries/RIKEN_MONA.xlsx; source_row=359; RT_sec=285.854999999999
Num Peaks: 25
103.053810 14.600000
116.196010 16.100000
128.065190 8.900000
131.050720 20.300000
133.059880 22.400000
133.066330 30.200000
137.056930 100.000000
138.063600 25.500000
151.067210 9.400000
163.077580 34.900000
176.067460 12.000000
189.077610 21.400000
203.104890 21.900000
203.114850 8.900000
204.114940 10.900000
206.093700 10.400000
295.110200 14.600000
295.140410 22.400000
296.130070 17.700000
305.885990 11.500000
326.160310 15.100000
327.152070 22.900000
327.163970 64.100000
344.167820 18.800000
362.187380 12.500000

NAME: Sempervirine
SCANNUMBER: RIKEN_MONA_360
PRECURSORMZ: 273.138625
PRECURSORTYPE: [M+H]+
IONMODE: Positive
SPECTRUMTYPE: MS2
COLLISIONENERGY: 10 eV
FORMULA: C19H16N2
SMILES: c1ccc2c3ccn4cc5c(cc4c-3nc2c1)CCCC5
INCHI: InChI=1S/C19H16N2/c1-2-6-14-12-21-10-9-16-15-7-3-4-8-17(15)20-19(16)18(21)11-13(14)5-1/h3-4,7-12H,1-2,5-6H2
INCHIKEY: UQVUEULZDJRMJR-UHFFFAOYSA-N
RETENTIONTIME: 5.229967
COMMENT: dataset=RIKEN_MONA; source_file=external_data/raw_libraries/RIKEN_MONA.xlsx; source_row=360; RT_sec=313.79802
Num Peaks: 14
206.082610 0.600000
230.083100 2.100000
231.090470 0.800000
232.096830 0.600000
243.094500 0.900000
245.107240 4.300000
246.114730 2.200000
256.099210 1.000000
257.108000 4.200000
271.124420 4.000000
272.129240 1.600000
273.094120 0.600000
273.138640 100.000000
273.186490 2.800000

NAME: Senecionine
SCANNUMBER: RIKEN_MONA_361
PRECURSORMZ: 336.180549
PRECURSORTYPE: [M+H]+
IONMODE: Positive
SPECTRUMTYPE: MS2
COLLISIONENERGY: 10 eV
FORMULA: C18H25NO5
SMILES: C/C=C1/C[C@@H](C)[C@@](C)(O)C(=O)OCC2=CCN3CC[C@@H](OC1=O)[C@@H]23
INCHI: InChI=1S/C18H25NO5/c1-4-12-9-11(2)18(3,22)17(21)23-10-13-5-7-19-8-6-14(15(13)19)24-16(12)20/h4-5,11,14-15,22H,6-10H2,1-3H3/b12-4-/t11-,14-,15-,18-/m1/s1
INCHIKEY: HKODIGSRFALUTA-JTLQZVBZSA-N
RETENTIONTIME: 3.796233
COMMENT: dataset=RIKEN_MONA; source_file=external_data/raw_libraries/RIKEN_MONA.xlsx; source_row=361; RT_sec=227.77398
Num Peaks: 10
93.070380 0.900000
94.053630 0.500000
94.065120 4.200000
120.081010 4.600000
138.092040 3.300000
153.088680 0.600000
308.171050 1.100000
308.188320 4.400000
309.187870 0.800000
336.179630 100.000000

NAME: Seneciphyllin
SCANNUMBER: RIKEN_MONA_362
PRECURSORMZ: 334.164899
PRECURSORTYPE: [M+H]+
IONMODE: Positive
SPECTRUMTYPE: MS2
COLLISIONENERGY: 10 eV
FORMULA: C18H23NO5
SMILES: C=C1C/C(=C/C)C(=O)O[C@@H]2CCN3CC=C(COC(=O)[C@]1(C)O)[C@H]23
INCHI: InChI=1S/C18H23NO5/c1-4-12-9-11(2)18(3,22)17(21)23-10-13-5-7-19-8-6-14(15(13)19)24-16(12)20/h4-5,14-15,22H,2,6-10H2,1,3H3/b12-4-/t14-,15-,18-/m1/s1
INCHIKEY: FCEVNJIUIMLVML-QPSVUOIXSA-N
RETENTIONTIME: 3.448167
COMMENT: dataset=RIKEN_MONA; source_file=external_data/raw_libraries/RIKEN_MONA.xlsx; source_row=362; RT_sec=206.89002
Num Peaks: 17
91.057000 0.500000
93.072800 0.600000
94.065430 2.100000
94.069790 1.100000
96.081310 0.700000
105.066980 0.700000
109.065020 0.700000
118.067210 0.600000
120.081280 4.600000
122.098880 1.000000
123.082910 0.500000
138.085750 0.700000
138.092880 3.000000
151.076800 0.600000
306.172180 5.100000
334.167050 100.000000
334.219330 2.100000

NAME: Sennoside B
SCANNUMBER: RIKEN_MONA_363
PRECURSORMZ: 861.188367
PRECURSORTYPE: [M-H]-
IONMODE: Negative
SPECTRUMTYPE: MS2
COLLISIONENERGY: 10 eV
FORMULA: C42H38O20
SMILES: O=C(O)c1cc(O)c2c(c1)C(C1c3cc(C(=O)O)cc(O)c3C(=O)c3c(OC4OC(CO)C(O)C(O)C4O)cccc31)c1cccc(OC3OC(CO)C(O)C(O)C3O)c1C2=O
INCHI: InChI=1S/C42H38O20/c43-11-23-31(47)35(51)37(53)41(61-23)59-21-5-1-3-15-25(17-7-13(39(55)56)9-19(45)27(17)33(49)29(15)21)26-16-4-2-6-22(60-42-38(54)36(52)32(48)24(12-44)62-42)30(16)34(50)28-18(26)8-14(40(57)58)10-20(28)46/h1-10,23-26,31-32,35-38,41-48,51-54H,11-12H2,(H,55,56)(H,57,58)
INCHIKEY: IPQVTOJGNYVQEO-UHFFFAOYSA-N
RETENTIONTIME: 3.824933
COMMENT: dataset=RIKEN_MONA; source_file=external_data/raw_libraries/RIKEN_MONA.xlsx; source_row=363; RT_sec=229.49598
Num Peaks: 51
224.044020 2.900000
224.059630 0.700000
241.056720 0.800000
249.321440 0.700000
268.036040 2.200000
269.042240 1.400000
280.344090 0.700000
386.100710 19.300000
387.101750 6.200000
388.102480 2.300000
400.118190 0.700000
409.556180 0.700000
417.026310 1.000000
431.091400 1.300000
447.097840 1.000000
450.098660 1.000000
460.047000 0.800000
470.884000 0.700000
497.468320 0.700000
505.119750 0.700000
517.098080 0.700000
520.269710 0.700000
537.092710 2.200000
572.445370 1.000000
583.752750 0.800000
593.163700 0.700000
610.153560 0.700000
610.169070 0.700000
611.144840 0.800000
655.140810 3.200000
655.166870 2.000000
656.136350 1.600000
697.148740 0.900000
698.085330 0.700000
698.122070 2.200000
698.155640 0.700000
699.136290 12.300000
699.180300 0.700000
700.123720 4.700000
701.120480 0.700000
701.152590 0.700000
702.169620 0.700000
704.081180 0.700000
712.834530 1.000000
731.964780 0.800000
743.148320 0.700000
770.308530 0.700000
845.199770 1.000000
861.006100 0.700000
861.130190 0.800000
861.186830 100.000000

NAME: Silychrystin
SCANNUMBER: RIKEN_MONA_364
PRECURSORMZ: 483.128573
PRECURSORTYPE: [M+H]+
IONMODE: Positive
SPECTRUMTYPE: MS2
COLLISIONENERGY: 10 eV
FORMULA: C25H22O10
SMILES: COc1cc([C@@H]2Oc3c(O)cc([C@H]4Oc5cc(O)cc(O)c5C(=O)[C@@H]4O)cc3[C@H]2CO)ccc1O
INCHI: InChI=1S/C25H22O10/c1-33-18-6-10(2-3-15(18)28)23-14(9-26)13-4-11(5-17(30)25(13)35-23)24-22(32)21(31)20-16(29)7-12(27)8-19(20)34-24/h2-8,14,22-24,26-30,32H,9H2,1H3/t14-,22+,23+,24-/m1/s1
INCHIKEY: BMLIIPOXVWESJG-LMBCONBSSA-N
RETENTIONTIME: 4.959950
COMMENT: dataset=RIKEN_MONA; source_file=external_data/raw_libraries/RIKEN_MONA.xlsx; source_row=364; RT_sec=297.597
Num Peaks: 221
97.043530 1.300000
111.043670 2.300000
113.025060 1.000000
121.064790 1.700000
123.043500 4.100000
131.048840 3.500000
135.043080 4.400000
135.050200 1.500000
137.046400 2.600000
137.059650 39.100000
138.062120 5.100000
147.051130 1.200000
148.998860 1.100000
149.012500 1.300000
149.020740 2.800000
149.029710 2.500000
149.053820 2.800000
150.068530 1.100000
152.999940 2.900000
153.015200 28.300000
153.022980 22.400000
154.024610 3.200000
155.032780 1.300000
157.026570 1.300000
161.066010 2.200000
165.018590 1.200000
165.071060 1.000000
166.052120 1.500000
167.033450 8.800000
167.082530 1.300000
168.034090 1.200000
168.050400 1.200000
175.045170 1.300000
181.868740 1.100000
183.078700 1.000000
187.048740 1.600000
192.038620 1.500000
193.065600 1.000000
194.075990 1.300000
195.028370 13.900000
195.079910 3.100000
196.036850 1.500000
197.050800 2.200000
202.081950 1.200000
203.039640 1.700000
204.035110 1.100000
209.059970 4.100000
210.054290 1.400000
210.072170 1.000000
211.079010 3.300000
221.049510 1.200000
222.057310 1.800000
223.082990 1.000000
224.089780 1.400000
225.084610 3.400000
226.060550 1.000000
226.093120 1.200000
229.050980 3.400000
229.088960 1.000000
237.021360 1.100000
237.045640 1.300000
237.073930 1.500000
237.088930 1.300000
238.074720 1.700000
239.069320 3.700000
243.075060 1.100000
249.065610 1.400000
250.049070 2.100000
251.071720 4.000000
252.074050 2.500000
253.077670 2.000000
253.087160 1.100000
255.049730 1.200000
255.062120 1.800000
255.075150 1.100000
256.065640 1.200000
256.077030 1.000000
257.030060 1.400000
257.047490 1.200000
257.057040 1.000000
258.059390 1.600000
258.084170 1.100000
258.096010 2.500000
258.106200 1.400000
259.035800 1.000000
259.097170 6.300000
260.093960 1.200000
261.048190 1.400000
264.076050 1.000000
265.044830 2.600000
265.077240 1.400000
267.071170 1.200000
269.084440 2.100000
270.089510 6.200000
271.066100 1.100000
271.094180 6.200000
272.098140 1.800000
272.116300 2.500000
273.103420 1.200000
277.046780 2.900000
278.067110 1.000000
278.303380 1.100000
279.060700 3.400000
279.078800 1.300000
280.076540 1.800000
281.052950 1.100000
281.074520 1.400000
281.091800 1.000000
282.079930 2.300000
282.094390 1.000000
283.055630 2.800000
283.083310 1.200000
283.096190 1.100000
284.055020 1.200000
284.081850 1.100000
285.043820 1.200000
287.102260 1.100000
293.076140 1.100000
293.606140 1.000000
294.059720 1.100000
295.080930 1.000000
295.091310 1.200000
296.053380 2.900000
297.096590 1.200000
297.116000 1.000000
299.073330 2.100000
300.066710 1.500000
301.079590 1.500000
303.074620 1.200000
305.076870 1.300000
307.059880 2.300000
307.070310 1.400000
309.073730 5.000000
311.048250 3.700000
311.063810 2.300000
313.066620 1.000000
313.080780 3.900000
316.090000 1.200000
318.042910 1.200000
323.062070 1.400000
323.083040 1.300000
327.086670 3.600000
328.080140 1.400000
328.094390 1.200000
329.048430 1.400000
330.084660 1.000000
331.040620 1.000000
341.062530 2.100000
343.095980 1.000000
347.078220 1.800000
347.102420 1.200000
351.055760 1.000000
351.093200 1.100000
357.069980 1.200000
357.082090 1.500000
358.067320 1.100000
359.066250 2.000000
359.083740 1.700000
372.692690 1.000000
374.128420 1.000000
375.089420 2.400000
375.126400 2.600000
379.102780 2.600000
379.118380 2.700000
380.136660 2.100000
383.711910 1.200000
387.078190 1.000000
388.114650 1.300000
390.105290 2.900000
391.102630 1.400000
391.114810 2.100000
403.052830 1.100000
403.071320 1.100000
405.094060 1.000000
407.036380 1.000000
407.094600 7.500000
407.121860 9.200000
408.104030 1.200000
408.122500 7.400000
409.116700 1.100000
409.131130 1.100000
417.081880 4.900000
418.096440 1.000000
418.112610 1.200000
419.104100 1.400000
419.125920 1.200000
421.109740 1.000000
423.095340 1.700000
433.093990 2.100000
435.103580 41.600000
435.118260 24.600000
435.150240 1.400000
436.093720 1.300000
436.110720 7.400000
436.174530 2.100000
437.070590 1.200000
437.100460 2.200000
437.123080 8.500000
441.142120 1.000000
447.095340 4.500000
447.112240 4.900000
448.093140 2.000000
448.120420 1.300000
452.095730 1.000000
452.123170 3.300000
453.065430 1.100000
453.082490 1.100000
453.118380 100.000000
454.085270 3.300000
454.120510 36.400000
455.105710 1.100000
455.137360 2.400000
462.441500 1.500000
462.910640 1.200000
464.103360 1.300000
464.130100 2.300000
465.114720 4.900000
482.127380 1.100000
483.077150 4.000000
483.129640 44.700000
483.204860 1.000000

NAME: Sinapic acid
SCANNUMBER: RIKEN_MONA_365
PRECURSORMZ: 225.075750
PRECURSORTYPE: [M+H]+
IONMODE: Positive
SPECTRUMTYPE: MS2
COLLISIONENERGY: 10 eV
FORMULA: C11H12O5
SMILES: COc1cc(/C=C/C(=O)O)cc(OC)c1O
INCHI: InChI=1S/C11H12O5/c1-15-8-5-7(3-4-10(12)13)6-9(16-2)11(8)14/h3-6,14H,1-2H3,(H,12,13)/b4-3+
INCHIKEY: PCMORTLOPMLEFB-ONEGZZNKSA-N
RETENTIONTIME: 4.206284
COMMENT: dataset=RIKEN_MONA; source_file=external_data/raw_libraries/RIKEN_MONA.xlsx; source_row=365; RT_sec=252.37704
Num Peaks: 22
91.054390 29.700000
93.032820 8.700000
118.041560 15.100000
119.046080 22.800000
145.928590 13.200000
146.033480 10.500000
147.044780 23.300000
148.043850 9.100000
149.030560 8.200000
170.603330 7.800000
175.043700 25.600000
176.050310 8.700000
186.953460 24.200000
190.927550 9.100000
192.042390 30.600000
195.929570 18.300000
197.048900 18.700000
207.062450 84.500000
208.057800 12.300000
208.073060 11.900000
209.046950 9.600000
224.068410 100.000000

NAME: Sinapoyl aldehyde
SCANNUMBER: RIKEN_MONA_366
PRECURSORMZ: 209.080835
PRECURSORTYPE: [M+H]+
IONMODE: Positive
SPECTRUMTYPE: MS2
COLLISIONENERGY: 10 eV
FORMULA: C11H12O4
SMILES: COc1cc(/C=C/C=O)cc(OC)c1O
INCHI: InChI=1S/C11H12O4/c1-14-9-6-8(4-3-5-12)7-10(15-2)11(9)13/h3-7,13H,1-2H3/b4-3+
INCHIKEY: CDICDSOGTRCHMG-ONEGZZNKSA-N
RETENTIONTIME: 4.734217
COMMENT: dataset=RIKEN_MONA; source_file=external_data/raw_libraries/RIKEN_MONA.xlsx; source_row=366; RT_sec=284.05302
Num Peaks: 101
51.018790 1.400000
57.036320 3.800000
62.882120 1.100000
78.050920 2.000000
84.379000 0.900000
89.037930 2.500000
90.041570 1.100000
91.005200 1.400000
91.038350 0.900000
91.050720 5.700000
91.055840 2.900000
92.054240 5.600000
93.068150 3.800000
94.028180 1.700000
98.032970 1.100000
102.045990 3.800000
103.051370 8.300000
103.067120 1.300000
106.038040 1.300000
106.041790 2.400000
107.043330 1.100000
107.051800 2.100000
117.030350 3.500000
117.067220 2.200000
118.037540 3.200000
118.045810 1.800000
119.047980 9.700000
119.056800 1.200000
120.052460 2.800000
120.064090 1.100000
121.026660 1.900000
121.064310 11.300000
122.235350 1.800000
123.043780 1.100000
124.054240 1.700000
127.103780 2.100000
130.043270 1.000000
131.050720 5.600000
132.054470 1.000000
133.021550 1.500000
134.035510 6.700000
135.065950 1.400000
138.026020 1.500000
138.035050 1.400000
139.050540 2.100000
140.043260 1.600000
145.021420 2.300000
145.029660 9.700000
145.037060 4.600000
146.041110 1.500000
147.045210 4.600000
148.042800 2.400000
148.053670 2.000000
148.377120 1.000000
149.055390 9.800000
149.072780 1.500000
150.026860 1.100000
150.064010 2.300000
151.038790 2.100000
151.060710 1.400000
153.036940 0.900000
153.054050 6.800000
154.174790 1.400000
155.059010 1.200000
158.039760 1.500000
159.049410 2.900000
159.107420 1.100000
162.023760 1.000000
162.032910 2.000000
163.035930 1.000000
163.078250 1.700000
164.040940 4.000000
164.097180 1.000000
165.152740 1.700000
166.055510 2.900000
166.063900 6.500000
167.069870 1.700000
173.062270 1.400000
174.036700 0.900000
176.025850 2.100000
176.046540 3.000000
177.034470 1.000000
177.054120 54.100000
178.054060 3.400000
178.063770 5.300000
179.024840 1.200000
179.060260 1.000000
180.074830 1.900000
181.049560 2.300000
181.077940 1.800000
182.096570 1.200000
191.063580 5.700000
191.073820 21.900000
191.948010 0.900000
193.032680 0.900000
193.053100 4.600000
194.045620 1.200000
194.056690 1.800000
209.059560 3.000000
209.072140 24.800000
209.080250 100.000000

NAME: Sinomenine
SCANNUMBER: RIKEN_MONA_367
PRECURSORMZ: 330.169985
PRECURSORTYPE: [M+H]+
IONMODE: Positive
SPECTRUMTYPE: MS2
COLLISIONENERGY: 10 eV
FORMULA: C19H23NO4
SMILES: COC1=C[C@@H]2[C@@H]3Cc4ccc(OC)c(O)c4[C@]2(CCN3C)CC1=O
INCHI: InChI=1S/C19H23NO4/c1-20-7-6-19-10-14(21)16(24-3)9-12(19)13(20)8-11-4-5-15(23-2)18(22)17(11)19/h4-5,9,12-13,22H,6-8,10H2,1-3H3/t12-,13+,19-/m1/s1
INCHIKEY: INYYVPJSBIVGPH-QHRIQVFBSA-N
RETENTIONTIME: 3.033383
COMMENT: dataset=RIKEN_MONA; source_file=external_data/raw_libraries/RIKEN_MONA.xlsx; source_row=367; RT_sec=182.00298
Num Peaks: 25
137.057820 0.800000
151.075490 0.900000
153.070630 2.100000
168.058410 0.600000
181.065110 4.700000
182.065080 0.800000
195.080280 1.800000
207.046130 3.500000
207.081330 0.600000
209.059650 1.800000
210.062240 0.500000
211.077030 1.200000
213.092450 2.500000
223.076550 4.400000
224.078260 1.300000
225.089310 0.700000
239.071470 4.000000
239.106050 0.500000
240.073760 0.800000
241.079300 1.000000
241.089770 2.000000
245.117340 0.900000
255.103090 1.300000
330.170410 100.000000
330.222930 3.400000

NAME: Soyasapogenol A
SCANNUMBER: RIKEN_MONA_368
PRECURSORMZ: 475.378187
PRECURSORTYPE: [M+H]+
IONMODE: Positive
SPECTRUMTYPE: MS2
COLLISIONENERGY: 10 eV
FORMULA: C30H50O4
SMILES: CC1(C)C[C@H]2C3=CC[C@@H]4[C@@]5(C)CC[C@H](O)[C@](C)(CO)[C@@H]5CC[C@@]4(C)[C@]3(C)CC[C@@]2(C)[C@H](O)[C@@H]1O
INCHI: InChI=1S/C30H50O4/c1-25(2)16-19-18-8-9-21-27(4)12-11-22(32)28(5,17-31)20(27)10-13-30(21,7)29(18,6)15-14-26(19,3)24(34)23(25)33/h8,19-24,31-34H,9-17H2,1-7H3/t19-,20+,21+,22-,23-,24+,26+,27-,28+,29+,30+/m0/s1
INCHIKEY: CDDWAYFUFNQLRZ-KJVHGCRFSA-N
RETENTIONTIME: 8.944983
COMMENT: dataset=RIKEN_MONA; source_file=external_data/raw_libraries/RIKEN_MONA.xlsx; source_row=368; RT_sec=536.69898
Num Peaks: 20
123.080250 44.000000
151.105650 38.000000
188.144040 34.000000
223.167010 44.000000
228.189350 32.000000
241.198290 32.000000
245.180820 48.000000
245.215900 40.000000
351.258880 32.000000
381.307280 32.000000
398.307530 48.000000
439.357760 50.000000
439.370790 34.000000
440.353360 42.000000
440.368470 76.000000
457.358920 100.000000
457.377230 76.000000
457.391170 34.000000
458.364260 36.000000
459.371640 40.000000

NAME: Soyasaponin Ba
SCANNUMBER: RIKEN_MONA_369
PRECURSORMZ: 959.521007
PRECURSORTYPE: [M+H]+
IONMODE: Positive
SPECTRUMTYPE: MS2
COLLISIONENERGY: 10 eV
FORMULA: C48H78O19
SMILES: CC1(C)CC(O)C2(C)CCC3(C)C(=CCC4C5(C)CCC(OC6OC(C(=O)O)C(O)C(O)C6OC6OC(CO)C(O)C(O)C6OC6OC(CO)C(O)C(O)C6O)C(C)(CO)C5CCC43C)C2C1
INCHI: InChI=1S/C48H78O19/c1-43(2)16-22-21-8-9-26-45(4)12-11-28(46(5,20-51)25(45)10-13-48(26,7)47(21,6)15-14-44(22,3)27(52)17-43)64-42-38(34(58)33(57)36(65-42)39(60)61)67-41-37(32(56)30(54)24(19-50)63-41)66-40-35(59)31(55)29(53)23(18-49)62-40/h8,22-38,40-42,49-59H,9-20H2,1-7H3,(H,60,61)
INCHIKEY: WFRQIKSNAYYUJZ-UHFFFAOYSA-N
RETENTIONTIME: 6.969333
COMMENT: dataset=RIKEN_MONA; source_file=external_data/raw_libraries/RIKEN_MONA.xlsx; source_row=369; RT_sec=418.159979999999
Num Peaks: 79
109.100210 0.500000
141.016980 1.900000
145.049800 2.400000
149.128590 0.500000
159.029970 1.300000
159.035770 0.600000
163.060650 8.400000
163.150340 0.600000
173.131120 0.500000
175.148410 0.600000
177.036180 0.700000
177.043880 0.600000
177.160490 1.000000
177.171920 0.500000
187.155110 0.500000
189.157230 1.000000
189.167300 1.100000
191.179960 1.200000
193.154040 0.600000
201.157940 0.700000
203.179110 3.800000
205.160870 0.800000
207.172380 0.500000
215.181590 0.700000
217.196700 2.900000
218.207170 0.700000
219.164930 0.700000
219.177800 0.800000
221.192260 0.800000
229.196370 0.700000
233.187190 1.600000
247.196900 0.600000
273.221860 0.600000
303.073390 0.600000
315.268100 0.900000
321.081510 3.900000
325.111300 1.700000
326.117860 0.500000
329.279390 0.500000
339.087710 4.300000
339.100560 1.800000
365.201480 0.800000
365.318390 1.200000
383.329440 1.000000
405.353640 2.200000
406.356540 1.500000
423.360050 23.100000
424.364620 8.500000
425.369810 0.900000
441.372890 34.100000
442.373690 9.300000
442.389860 3.300000
443.370060 0.700000
443.384460 0.800000
443.398770 0.600000
459.347690 0.500000
459.382970 1.300000
459.401310 0.800000
460.391390 0.700000
501.149350 1.300000
581.382750 1.500000
581.402400 0.900000
582.406010 0.600000
599.391300 16.300000
600.396240 7.100000
601.390010 1.000000
601.407410 0.500000
617.405640 7.700000
618.409180 3.000000
635.404360 2.700000
635.425900 5.300000
636.421080 1.700000
797.441770 0.600000
797.482060 2.800000
798.472350 1.000000
798.499820 1.000000
959.438480 0.900000
959.519780 100.000000
959.601680 0.600000

NAME: Soyasaponin Bb
SCANNUMBER: RIKEN_MONA_370
PRECURSORMZ: 943.526092
PRECURSORTYPE: [M+H]+
IONMODE: Positive
SPECTRUMTYPE: MS2
COLLISIONENERGY: 10 eV
FORMULA: C48H78O18
SMILES: C[C@@H]1O[C@@H](O[C@H]2[C@H](O[C@@H]3[C@@H](O)[C@H](O)[C@@H](C(=O)O)O[C@H]3O[C@H]3CC[C@@]4(C)[C@@H](CC[C@]5(C)[C@@H]4CC=C4[C@@H]6CC(C)(C)C[C@@H](O)[C@]6(C)CC[C@]45C)[C@@]3(C)CO)O[C@H](CO)[C@H](O)[C@@H]2O)[C@H](O)[C@H](O)[C@H]1O
INCHI: InChI=1S/C48H78O18/c1-21-29(52)31(54)35(58)40(61-21)65-37-32(55)30(53)24(19-49)62-41(37)66-38-34(57)33(56)36(39(59)60)64-42(38)63-28-12-13-45(5)25(46(28,6)20-50)11-14-48(8)26(45)10-9-22-23-17-43(2,3)18-27(51)44(23,4)15-16-47(22,48)7/h9,21,23-38,40-42,49-58H,10-20H2,1-8H3,(H,59,60)/t21-,23-,24+,25+,26+,27+,28-,29-,30-,31+,32-,33-,34-,35+,36-,37+,38+,40-,41-,42+,44+,45-,46+,47+,48+/m0/s1
INCHIKEY: PTDAHAWQAGSZDD-IOVCITQVSA-N
RETENTIONTIME: 7.092883
COMMENT: dataset=RIKEN_MONA; source_file=external_data/raw_libraries/RIKEN_MONA.xlsx; source_row=370; RT_sec=425.57298
Num Peaks: 88
109.102920 0.900000
129.057280 1.500000
141.019360 1.400000
147.065520 3.200000
159.026400 1.700000
163.059590 3.100000
163.146580 0.700000
177.162410 1.500000
189.161500 1.500000
193.165080 0.600000
195.176760 1.500000
201.165390 0.600000
203.180730 3.700000
205.160600 0.700000
207.176480 1.100000
215.177640 0.900000
215.192350 0.600000
217.193700 4.200000
219.176100 1.900000
221.189360 0.700000
231.181520 0.600000
233.194840 0.900000
245.193920 0.800000
247.207640 1.500000
248.208450 0.600000
261.231930 0.700000
269.056430 0.500000
287.072880 0.900000
287.084530 0.600000
287.242000 0.600000
297.253750 0.600000
305.065460 0.600000
305.083250 1.100000
309.116550 2.400000
309.130770 0.500000
315.267330 1.400000
323.082950 0.600000
323.100650 2.800000
329.277980 0.500000
339.095060 1.300000
365.313200 0.700000
383.332460 1.100000
383.344670 0.600000
384.327480 0.500000
405.346770 1.500000
405.364960 1.700000
406.334500 0.600000
423.362580 33.000000
424.365880 11.000000
425.360020 1.200000
425.374050 2.400000
441.318270 0.800000
441.372100 42.300000
442.375640 12.500000
443.373200 1.400000
443.395810 0.600000
459.356290 0.500000
459.381620 2.600000
460.395480 0.700000
485.153630 0.600000
581.361270 1.000000
581.387210 1.300000
581.406740 1.400000
582.389400 1.700000
599.338440 0.700000
599.396730 20.700000
600.401730 6.200000
600.418330 1.900000
601.411800 1.400000
605.412230 0.800000
605.440980 3.100000
606.439090 1.100000
607.459660 0.500000
617.405150 7.400000
618.403630 3.700000
619.418400 0.600000
635.420170 7.700000
636.430480 1.500000
637.426510 1.300000
781.451780 1.700000
781.484130 1.500000
782.482420 1.200000
783.498600 0.500000
797.465520 14.500000
798.471250 7.700000
799.483400 0.900000
800.470210 0.600000
943.524900 100.000000

NAME: Sparteine
SCANNUMBER: RIKEN_MONA_371
PRECURSORMZ: 235.216875
PRECURSORTYPE: [M+H]+
IONMODE: Positive
SPECTRUMTYPE: MS2
COLLISIONENERGY: 10 eV
FORMULA: C15H26N2
SMILES: C1CCN2C[C@@H]3C[C@@H](CN4CCCC[C@H]34)[C@@H]2C1
INCHI: InChI=1S/C15H26N2/c1-3-7-16-11-13-9-12(14(16)5-1)10-17-8-4-2-6-15(13)17/h12-15H,1-11H2/t12-,13-,14-,15+/m0/s1
INCHIKEY: SLRCCWJSBJZJBV-ZQDZILKHSA-N
RETENTIONTIME: 2.328100
COMMENT: dataset=RIKEN_MONA; source_file=external_data/raw_libraries/RIKEN_MONA.xlsx; source_row=371; RT_sec=139.686
Num Peaks: 12
98.093340 4.500000
98.099210 2.200000
98.105710 0.600000
99.104070 0.900000
168.799480 0.600000
176.146500 0.500000
190.155960 0.500000
195.910220 0.600000
233.204010 3.800000
234.199710 1.800000
235.181850 1.100000
235.218090 100.000000

NAME: Speciofiline
SCANNUMBER: RIKEN_MONA_372
PRECURSORMZ: 369.180884
PRECURSORTYPE: [M+H]+
IONMODE: Positive
SPECTRUMTYPE: MS2
COLLISIONENERGY: 10 eV
FORMULA: C21H24N2O4
SMILES: COC(=O)C1=CO[C@@H](C)[C@@H]2CN3CC[C@]4(C(O)=Nc5ccccc54)[C@H]3C[C@H]12
INCHI: InChI=1S/C21H24N2O4/c1-12-14-10-23-8-7-21(16-5-3-4-6-17(16)22-20(21)25)18(23)9-13(14)15(11-27-12)19(24)26-2/h3-6,11-14,18H,7-10H2,1-2H3,(H,22,25)/t12-,13-,14-,18+,21+/m0/s1
INCHIKEY: JMIAZDVHNCCPDM-PMJXBNNDSA-N
RETENTIONTIME: 4.094467
COMMENT: dataset=RIKEN_MONA; source_file=external_data/raw_libraries/RIKEN_MONA.xlsx; source_row=372; RT_sec=245.668019999999
Num Peaks: 26
124.039760 1.100000
132.043730 1.100000
132.080720 2.200000
139.038670 0.700000
142.065050 2.000000
158.061230 1.400000
159.067440 0.700000
160.075840 12.800000
161.079330 1.600000
178.087650 0.900000
187.086150 3.500000
188.089800 0.700000
201.102510 1.500000
213.103490 1.300000
215.119750 1.000000
239.119490 0.700000
241.135800 0.800000
265.092160 0.500000
265.104030 0.500000
267.148190 1.400000
281.092160 0.900000
309.157750 0.500000
337.154270 5.600000
338.161560 1.300000
369.180970 100.000000
369.236480 3.200000

NAME: Speciophylline
SCANNUMBER: RIKEN_MONA_373
PRECURSORMZ: 369.180884
PRECURSORTYPE: [M+H]+
IONMODE: Positive
SPECTRUMTYPE: MS2
COLLISIONENERGY: 10 eV
FORMULA: C21H24N2O4
SMILES: COC(=O)C1=CO[C@@H](C)[C@@H]2CN3CC[C@@]4(C(O)=Nc5ccccc54)[C@H]3C[C@H]12
INCHI: InChI=1S/C21H24N2O4/c1-12-14-10-23-8-7-21(16-5-3-4-6-17(16)22-20(21)25)18(23)9-13(14)15(11-27-12)19(24)26-2/h3-6,11-14,18H,7-10H2,1-2H3,(H,22,25)/t12-,13-,14-,18+,21-/m0/s1
INCHIKEY: JMIAZDVHNCCPDM-ZUNJVLJPSA-N
RETENTIONTIME: 4.926550
COMMENT: dataset=RIKEN_MONA; source_file=external_data/raw_libraries/RIKEN_MONA.xlsx; source_row=373; RT_sec=295.592999999999
Num Peaks: 32
108.081090 2.000000
110.095720 1.400000
130.066360 3.000000
132.082990 1.000000
142.065750 1.900000
158.060500 8.200000
159.064270 1.200000
160.075500 11.800000
161.077870 1.200000
173.106800 0.700000
186.080410 0.700000
187.087520 1.900000
199.089050 0.600000
201.102430 19.400000
202.105190 2.900000
213.104510 1.400000
237.102040 0.900000
239.121370 2.000000
241.134060 1.200000
265.093900 0.800000
265.134980 1.300000
267.149750 6.900000
268.153410 1.600000
283.106690 0.700000
293.129940 1.300000
309.159300 0.900000
325.154750 2.000000
337.155060 10.200000
338.159910 2.500000
341.187130 0.500000
369.182160 100.000000
369.237090 3.000000

NAME: Speciosine
SCANNUMBER: RIKEN_MONA_374
PRECURSORMZ: 478.222414
PRECURSORTYPE: [M+H]+
IONMODE: Positive
SPECTRUMTYPE: MS2
COLLISIONENERGY: 10 eV
FORMULA: C28H31NO6
SMILES: COc1cc2c(c(OC)c1OC)-c1ccc(OC)c(=O)cc1C(N(C)Cc1ccccc1O)CC2
INCHI: InChI=1S/C28H31NO6/c1-29(16-18-8-6-7-9-22(18)30)21-12-10-17-14-25(33-3)27(34-4)28(35-5)26(17)19-11-13-24(32-2)23(31)15-20(19)21/h6-9,11,13-15,21,30H,10,12,16H2,1-5H3
INCHIKEY: SOFSXTKPGSIDCI-UHFFFAOYSA-N
RETENTIONTIME: 5.032233
COMMENT: dataset=RIKEN_MONA; source_file=external_data/raw_libraries/RIKEN_MONA.xlsx; source_row=374; RT_sec=301.933979999999
Num Peaks: 89
72.047400 0.600000
136.076400 1.300000
181.088790 1.000000
235.074540 0.600000
241.091780 0.500000
249.094540 0.500000
250.102840 0.500000
251.110700 0.500000
256.108860 1.700000
264.099730 0.600000
265.098180 0.500000
266.097050 0.700000
267.105530 1.000000
268.110990 0.500000
272.100650 1.100000
272.113560 0.600000
278.100400 1.600000
278.118800 0.500000
279.105070 1.200000
279.121400 1.500000
280.110380 0.700000
281.121280 0.800000
282.105470 0.600000
282.117550 2.300000
283.093050 0.800000
283.105590 0.600000
284.103670 1.400000
285.106080 0.700000
285.116060 1.200000
286.114110 0.500000
287.120970 0.800000
287.133000 0.800000
294.084500 0.700000
294.097080 0.500000
295.089260 1.200000
295.101200 1.900000
295.116150 0.600000
296.094790 0.800000
296.105380 0.600000
296.116030 0.700000
296.131560 0.500000
297.114960 0.600000
297.127170 0.600000
298.108000 0.700000
298.127660 0.600000
299.119480 0.600000
299.137910 0.600000
300.098020 0.900000
301.148350 1.200000
308.126980 2.100000
309.114560 2.300000
309.135590 1.900000
309.149140 0.500000
310.119900 11.500000
311.086580 1.400000
311.106990 2.300000
311.127620 3.700000
312.103580 0.800000
312.128810 0.800000
312.143250 1.300000
312.158390 2.900000
313.131380 0.800000
313.151760 1.800000
315.120450 2.700000
315.136230 1.100000
316.131040 1.000000
324.120450 1.600000
325.114010 0.800000
325.134520 2.100000
326.113890 2.600000
326.126010 2.400000
327.114960 0.800000
327.139040 0.700000
340.155090 9.600000
341.130190 1.800000
341.150480 5.900000
342.138370 3.700000
343.154690 1.900000
344.148380 2.500000
354.171840 0.700000
357.158780 1.000000
372.116060 0.500000
372.181550 100.000000
372.237950 1.700000
373.184450 23.400000
374.190220 2.800000
478.215240 30.600000
478.231900 38.900000
478.297700 0.900000

NAME: Strychnine
SCANNUMBER: RIKEN_MONA_375
PRECURSORMZ: 335.175404
PRECURSORTYPE: [M+H]+
IONMODE: Positive
SPECTRUMTYPE: MS2
COLLISIONENERGY: 10 eV
FORMULA: C21H22N2O2
SMILES: O=C1C[C@@H]2OCC=C3CN4CC[C@]56c7ccccc7N1[C@H]5[C@H]2[C@H]3C[C@H]46
INCHI: InChI=1S/C21H22N2O2/c24-18-10-16-19-13-9-17-21(6-7-22(17)11-12(13)5-8-25-16)14-3-1-2-4-15(14)23(18)20(19)21/h1-5,13,16-17,19-20H,6-11H2/t13-,16-,17-,19-,20-,21+/m0/s1
INCHIKEY: QMGVPVSNSZLJIA-FVWCLLPLSA-N
RETENTIONTIME: 3.456917
COMMENT: dataset=RIKEN_MONA; source_file=external_data/raw_libraries/RIKEN_MONA.xlsx; source_row=375; RT_sec=207.41502
Num Peaks: 12
156.081500 1.300000
184.077180 4.200000
185.079390 0.900000
194.098190 0.700000
220.078280 0.800000
222.090550 1.200000
234.095380 0.600000
248.105300 0.700000
262.120940 0.500000
264.105960 2.100000
335.176120 100.000000
335.229340 3.000000

NAME: Subsessiline
SCANNUMBER: RIKEN_MONA_376
PRECURSORMZ: 717.364662
PRECURSORTYPE: [M+H]+
IONMODE: Positive
SPECTRUMTYPE: MS2
COLLISIONENERGY: 10 eV
FORMULA: C43H48N4O6
SMILES: COC(=O)C1=C2Nc3ccccc3C23CCN2C4OC56C7CC4(CN5c4c(OC)cccc4C64CCN5CCC6OCCC6(C7)C54)C4OCCC4(C1)C23
INCHI: InChI=1S/C43H48N4O6/c1-49-29-9-5-7-27-31(29)47-23-40-21-24-20-38-13-18-51-30(38)10-15-45-16-12-42(27,35(38)45)43(24,47)53-37(40)46-17-11-41-26-6-3-4-8-28(26)44-32(41)25(33(48)50-2)22-39(34(41)46)14-19-52-36(39)40/h3-9,24,30,34-37,44H,10-23H2,1-2H3
INCHIKEY: RZBFPDQKWUWUCK-UHFFFAOYSA-N
RETENTIONTIME: 5.792850
COMMENT: dataset=RIKEN_MONA; source_file=external_data/raw_libraries/RIKEN_MONA.xlsx; source_row=376; RT_sec=347.570999999999
Num Peaks: 42
196.074370 0.700000
227.225300 0.500000
228.098820 4.300000
245.130330 7.400000
245.144790 0.700000
246.118230 0.600000
246.131850 2.900000
247.137560 1.000000
337.193450 0.600000
347.126250 1.100000
347.141570 4.200000
348.132630 1.100000
349.204830 0.500000
357.166600 1.200000
379.165830 19.000000
379.177610 6.900000
380.153750 1.600000
380.171540 3.700000
380.182710 1.100000
381.159270 0.800000
389.170840 0.500000
465.232420 0.700000
472.241640 1.500000
487.305510 0.600000
490.264040 3.000000
490.278870 1.400000
526.483640 0.600000
667.316650 0.800000
685.325870 4.000000
685.350650 1.900000
686.326170 1.500000
686.355650 1.700000
699.350340 2.900000
700.354740 2.200000
700.390870 0.800000
701.377140 0.700000
716.335880 0.700000
716.363460 0.900000
717.220460 0.600000
717.240600 0.600000
717.283940 1.400000
717.363340 100.000000

NAME: Swertiamarin
SCANNUMBER: RIKEN_MONA_377
PRECURSORMZ: 375.128573
PRECURSORTYPE: [M+H]+
IONMODE: Positive
SPECTRUMTYPE: MS2
COLLISIONENERGY: 10 eV
FORMULA: C16H22O10
SMILES: C=C[C@H]1[C@H](O[C@@H]2O[C@H](CO)[C@@H](O)[C@H](O)[C@H]2O)OC=C2C(=O)OCC[C@]21O
INCHI: InChI=1S/C16H22O10/c1-2-7-14(24-6-8-13(21)23-4-3-16(7,8)22)26-15-12(20)11(19)10(18)9(5-17)25-15/h2,6-7,9-12,14-15,17-20,22H,1,3-5H2/t7-,9+,10+,11-,12+,14-,15-,16+/m0/s1
INCHIKEY: HEYZWPRKKUGDCR-QBXMEVCASA-N
RETENTIONTIME: 3.197800
COMMENT: dataset=RIKEN_MONA; source_file=external_data/raw_libraries/RIKEN_MONA.xlsx; source_row=377; RT_sec=191.868
Num Peaks: 25
91.050550 3.600000
94.076450 4.300000
105.070170 3.000000
121.064500 6.600000
127.039320 2.300000
137.058290 5.800000
138.059630 2.500000
139.055020 2.800000
139.075200 6.700000
140.080140 2.900000
143.034530 7.200000
149.050750 5.200000
149.060240 16.800000
159.044800 2.900000
167.070500 11.600000
168.960050 3.200000
177.052700 100.000000
177.069350 6.600000
178.052310 2.800000
195.059110 34.800000
195.068760 81.400000
196.071750 7.800000
213.069960 5.100000
268.971560 2.300000
330.160280 2.500000

NAME: Syringetin-3-O-galactoside
SCANNUMBER: RIKEN_MONA_378
PRECURSORMZ: 507.114414
PRECURSORTYPE: [M-H]-
IONMODE: Negative
SPECTRUMTYPE: MS2
COLLISIONENERGY: 10 eV
FORMULA: C23H24O13
SMILES: COc1cc(-c2oc3cc(O)cc(O)c3c(=O)c2OC2OC(CO)C(O)C(O)C2O)cc(OC)c1O
INCHI: InChI=1S/C23H24O13/c1-32-12-3-8(4-13(33-2)16(12)27)21-22(18(29)15-10(26)5-9(25)6-11(15)34-21)36-23-20(31)19(30)17(28)14(7-24)35-23/h3-6,14,17,19-20,23-28,30-31H,7H2,1-2H3
INCHIKEY: JMFWYRWPJVEZPV-UHFFFAOYSA-N
RETENTIONTIME: 4.328283
COMMENT: dataset=RIKEN_MONA; source_file=external_data/raw_libraries/RIKEN_MONA.xlsx; source_row=378; RT_sec=259.69698
Num Peaks: 35
151.001080 2.800000
153.018280 2.800000
164.013530 3.200000
214.012040 3.400000
233.000810 3.500000
241.005950 2.900000
242.021680 2.600000
243.023150 6.200000
258.023530 9.700000
269.005160 2.800000
272.027250 3.800000
273.027710 5.000000
273.042760 15.600000
274.010100 3.000000
274.045870 3.000000
286.013030 7.200000
287.051790 3.000000
288.069730 4.100000
289.047390 2.900000
301.029300 7.600000
301.038850 3.000000
301.080510 3.000000
302.044190 5.700000
315.046390 3.500000
316.047090 2.600000
316.058840 5.000000
317.023070 2.600000
330.004460 2.400000
330.035130 2.600000
344.041290 22.500000
344.055570 23.700000
345.057920 26.900000
359.086120 5.400000
479.133420 3.400000
507.116120 100.000000

NAME: Syringetin-3-O-glucoside
SCANNUMBER: RIKEN_MONA_379
PRECURSORMZ: 509.128967
PRECURSORTYPE: [M+H]+
IONMODE: Positive
SPECTRUMTYPE: MS2
COLLISIONENERGY: 10 eV
FORMULA: C23H24O13
SMILES: COc1cc(-c2oc3cc(O)cc(O)c3c(=O)c2O[C@@H]2O[C@H](CO)[C@@H](O)[C@H](O)[C@H]2O)cc(OC)c1O
INCHI: InChI=1S/C23H24O13/c1-32-12-3-8(4-13(33-2)16(12)27)21-22(18(29)15-10(26)5-9(25)6-11(15)34-21)36-23-20(31)19(30)17(28)14(7-24)35-23/h3-6,14,17,19-20,23-28,30-31H,7H2,1-2H3/t14-,17-,19+,20-,23+/m1/s1
INCHIKEY: JMFWYRWPJVEZPV-AVGVHVDKSA-N
RETENTIONTIME: 4.356517
COMMENT: dataset=RIKEN_MONA; source_file=external_data/raw_libraries/RIKEN_MONA.xlsx; source_row=379; RT_sec=261.39102
Num Peaks: 52
85.033150 0.700000
95.800640 0.500000
99.042660 0.800000
115.025520 0.900000
141.079930 0.600000
146.047730 0.500000
152.920390 0.600000
153.024230 2.900000
153.054630 1.800000
165.010770 0.600000
165.023470 1.000000
178.030230 0.900000
181.048830 0.700000
188.059140 0.800000
189.022460 0.800000
192.042050 0.800000
197.009380 0.500000
207.064270 1.900000
207.086940 0.500000
217.044400 0.800000
231.060200 0.600000
232.056610 0.600000
258.051300 0.700000
269.059810 0.600000
285.035980 0.800000
285.048130 1.000000
286.013490 0.700000
286.049190 1.500000
287.048100 1.700000
287.066650 2.700000
288.052250 0.500000
291.086940 1.100000
292.084470 1.000000
303.042940 1.400000
303.054350 1.400000
315.023590 0.800000
316.067990 0.900000
331.051700 0.900000
331.080810 0.700000
332.031010 0.600000
332.052220 1.100000
346.063720 0.800000
347.036740 3.200000
347.075410 100.000000
348.069270 11.100000
348.082490 7.800000
349.078640 2.700000
389.074950 0.700000
389.095030 0.500000
470.777530 0.900000
509.119540 1.800000
509.134860 2.700000

NAME: Syrosingopine
SCANNUMBER: RIKEN_MONA_380
PRECURSORMZ: 667.286137
PRECURSORTYPE: [M+H]+
IONMODE: Positive
SPECTRUMTYPE: MS2
COLLISIONENERGY: 10 eV
FORMULA: C35H42N2O11
SMILES: CCOC(=O)Oc1c(OC)cc(C(=O)OC2CC3CN4CCc5c([nH]c6cc(OC)ccc56)C4CC3C(C(=O)OC)C2OC)cc1OC
INCHI: InChI=1S/C35H42N2O11/c1-7-46-35(40)48-31-26(42-3)12-18(13-27(31)43-4)33(38)47-28-14-19-17-37-11-10-22-21-9-8-20(41-2)15-24(21)36-30(22)25(37)16-23(19)29(32(28)44-5)34(39)45-6/h8-9,12-13,15,19,23,25,28-29,32,36H,7,10-11,14,16-17H2,1-6H3
INCHIKEY: ZCDNRPPFBQDQHR-UHFFFAOYSA-N
RETENTIONTIME: 6.720183
COMMENT: dataset=RIKEN_MONA; source_file=external_data/raw_libraries/RIKEN_MONA.xlsx; source_row=380; RT_sec=403.210979999999
Num Peaks: 24
174.090410 6.800000
175.094270 0.600000
181.046190 2.600000
181.055470 1.300000
192.099850 1.000000
224.121480 0.700000
224.135160 0.900000
236.130400 2.400000
253.072450 0.700000
336.160860 0.700000
365.174470 0.700000
365.188570 1.900000
397.203370 3.100000
397.219240 5.000000
398.216550 1.800000
494.190120 0.800000
494.213960 0.900000
506.202120 5.400000
507.193730 0.800000
507.216740 0.900000
667.207400 0.900000
667.289610 100.000000
667.360290 1.000000
667.379700 0.700000

NAME: Tabersonine
SCANNUMBER: RIKEN_MONA_381
PRECURSORMZ: 337.191055
PRECURSORTYPE: [M+H]+
IONMODE: Positive
SPECTRUMTYPE: MS2
COLLISIONENERGY: 10 eV
FORMULA: C21H24N2O2
SMILES: CC[C@]12C=CCN3CC[C@]4(C(=C(C(=O)OC)C1)Nc1ccccc14)[C@@H]32
INCHI: InChI=1S/C21H24N2O2/c1-3-20-9-6-11-23-12-10-21(19(20)23)15-7-4-5-8-16(15)22-17(21)14(13-20)18(24)25-2/h4-9,19,22H,3,10-13H2,1-2H3/t19-,20-,21-/m0/s1
INCHIKEY: FNGGIPWAZSFKCN-ACRUOGEOSA-N
RETENTIONTIME: 5.198350
COMMENT: dataset=RIKEN_MONA; source_file=external_data/raw_libraries/RIKEN_MONA.xlsx; source_row=381; RT_sec=311.900999999999
Num Peaks: 40
107.071300 0.600000
108.081570 1.000000
122.095630 2.500000
130.067670 0.700000
134.095830 0.800000
136.111450 5.600000
144.080380 1.600000
154.064320 0.900000
156.079390 3.300000
157.086000 0.800000
167.072490 2.200000
168.080440 15.100000
169.083940 2.700000
170.059430 0.800000
170.097000 4.200000
171.095440 0.800000
196.077000 5.300000
197.078080 1.100000
198.090760 0.500000
216.101970 1.400000
228.102040 9.800000
229.100480 1.600000
230.112730 1.100000
233.104660 0.500000
235.123930 0.600000
247.124400 1.200000
248.129330 0.600000
249.138640 5.000000
250.138720 0.600000
275.121030 0.800000
277.160830 1.000000
277.170990 2.100000
278.178250 0.800000
303.151950 0.700000
305.155490 5.000000
305.165890 15.300000
306.168210 4.600000
337.144740 0.500000
337.191440 100.000000
337.244810 2.700000

NAME: Tectorigenin
SCANNUMBER: RIKEN_MONA_382
PRECURSORMZ: 301.070665
PRECURSORTYPE: [M+H]+
IONMODE: Positive
SPECTRUMTYPE: MS2
COLLISIONENERGY: 10 eV
FORMULA: C16H12O6
SMILES: COc1c(O)cc2occ(-c3ccc(O)cc3)c(=O)c2c1O
INCHI: InChI=1S/C16H12O6/c1-21-16-11(18)6-12-13(15(16)20)14(19)10(7-22-12)8-2-4-9(17)5-3-8/h2-7,17-18,20H,1H3
INCHIKEY: OBBCRPUNCUPUOS-UHFFFAOYSA-N
RETENTIONTIME: 5.986467
COMMENT: dataset=RIKEN_MONA; source_file=external_data/raw_libraries/RIKEN_MONA.xlsx; source_row=382; RT_sec=359.18802
Num Peaks: 19
68.993640 0.600000
118.042340 2.600000
128.061510 0.600000
140.009430 2.800000
168.006230 7.700000
169.012740 0.900000
184.049270 1.400000
212.038190 0.600000
212.050810 1.100000
213.048800 0.600000
240.041870 1.700000
257.043180 1.000000
258.052830 2.000000
269.043330 0.900000
285.038360 9.600000
286.047180 50.500000
287.052370 8.300000
301.071230 100.000000
301.122190 1.300000

NAME: Tetrahydroalstonine
SCANNUMBER: RIKEN_MONA_383
PRECURSORMZ: 353.185969
PRECURSORTYPE: [M+H]+
IONMODE: Positive
SPECTRUMTYPE: MS2
COLLISIONENERGY: 10 eV
FORMULA: C21H24N2O3
SMILES: COC(=O)C1=COC(C)C2CN3CCc4c([nH]c5ccccc45)C3CC12
INCHI: InChI=1S/C21H24N2O3/c1-12-16-10-23-8-7-14-13-5-3-4-6-18(13)22-20(14)19(23)9-15(16)17(11-26-12)21(24)25-2/h3-6,11-12,15-16,19,22H,7-10H2,1-2H3
INCHIKEY: GRTOGORTSDXSFK-UHFFFAOYSA-N
RETENTIONTIME: 4.873116
COMMENT: dataset=RIKEN_MONA; source_file=external_data/raw_libraries/RIKEN_MONA.xlsx; source_row=383; RT_sec=292.38696
Num Peaks: 23
108.082820 0.600000
117.072270 1.100000
127.053380 0.700000
143.073790 1.300000
144.081410 57.600000
144.115680 0.700000
145.085370 7.100000
156.079680 0.500000
158.095640 1.400000
162.093550 0.600000
167.072830 1.000000
170.091810 0.700000
178.088780 3.500000
182.093220 0.700000
199.120450 1.100000
210.114200 5.400000
211.117220 0.600000
222.113710 5.700000
223.115430 1.400000
321.160580 1.900000
353.125850 0.800000
353.184140 100.000000
353.238340 2.800000

NAME: Thalsimidine
SCANNUMBER: RIKEN_MONA_384
PRECURSORMZ: 623.275178
PRECURSORTYPE: [M+H]+
IONMODE: Positive
SPECTRUMTYPE: MS2
COLLISIONENERGY: 10 eV
FORMULA: C37H38N2O7
SMILES: COc1ccc2cc1Oc1ccc(cc1)CC1=NCCc3cc(OC)c(cc31)Oc1c(OC)c(OC)c(O)c3c1[C@@H](C2)N(C)CC3
INCHI: InChI=1S/C37H38N2O7/c1-39-15-13-25-33-28(39)17-22-8-11-29(41-2)31(18-22)45-24-9-6-21(7-10-24)16-27-26-20-32(30(42-3)19-23(26)12-14-38-27)46-35(33)37(44-5)36(43-4)34(25)40/h6-11,18-20,28,40H,12-17H2,1-5H3/t28-/m1/s1
INCHIKEY: CLDCTFPNFRITPI-MUUNZHRXSA-N
RETENTIONTIME: 3.957750
COMMENT: dataset=RIKEN_MONA; source_file=external_data/raw_libraries/RIKEN_MONA.xlsx; source_row=384; RT_sec=237.465
Num Peaks: 29
135.082200 0.600000
204.064900 0.700000
312.141390 3.300000
312.636230 0.600000
312.648250 0.800000
372.196870 0.600000
395.306950 0.500000
401.185240 0.700000
534.192020 1.200000
559.217960 0.600000
560.221620 0.600000
561.289310 0.600000
575.220150 0.700000
576.207950 0.500000
577.205320 2.100000
577.235050 2.000000
578.218990 0.600000
591.239010 1.400000
592.208560 0.500000
592.234440 2.500000
593.178340 0.600000
593.225400 1.200000
594.198670 0.800000
594.236450 1.300000
595.225160 1.200000
607.233280 0.900000
609.260930 0.500000
623.209470 1.600000
623.275880 100.000000

NAME: Thalsimine
SCANNUMBER: RIKEN_MONA_385
PRECURSORMZ: 637.290828
PRECURSORTYPE: [M+H]+
IONMODE: Positive
SPECTRUMTYPE: MS2
COLLISIONENERGY: 10 eV
FORMULA: C38H40N2O7
SMILES: COc1ccc2cc1Oc1ccc(cc1)CC1=NCCc3cc(OC)c(cc31)Oc1c(OC)c(OC)c(OC)c3c1[C@H](C2)N(C)CC3
INCHI: InChI=1S/C38H40N2O7/c1-40-16-14-26-34-29(40)18-23-9-12-30(41-2)32(19-23)46-25-10-7-22(8-11-25)17-28-27-21-33(31(42-3)20-24(27)13-15-39-28)47-36(34)38(45-6)37(44-5)35(26)43-4/h7-12,19-21,29H,13-18H2,1-6H3/t29-/m0/s1
INCHIKEY: YWNUNVSMOKMJMG-LJAQVGFWSA-N
RETENTIONTIME: 4.254667
COMMENT: dataset=RIKEN_MONA; source_file=external_data/raw_libraries/RIKEN_MONA.xlsx; source_row=385; RT_sec=255.28002
Num Peaks: 37
188.071270 0.600000
265.119690 1.200000
323.157560 0.700000
354.161320 0.600000
368.170410 0.600000
370.157650 1.100000
388.189210 0.700000
401.154360 0.600000
402.176790 0.800000
416.199460 1.400000
426.505920 0.500000
431.248870 0.600000
550.242680 0.900000
562.219300 0.500000
576.193360 1.000000
576.207760 1.700000
577.207030 1.400000
577.229190 0.500000
578.235840 0.500000
578.264590 0.700000
579.201290 0.700000
589.238890 0.800000
591.237060 1.200000
592.245000 1.000000
594.277950 0.500000
605.259090 3.000000
606.172060 0.500000
606.257810 4.800000
607.230710 3.200000
607.268860 3.700000
608.243230 1.200000
608.270260 0.900000
609.233520 0.800000
621.261050 2.000000
622.255430 0.700000
637.229920 2.200000
637.293580 100.000000

NAME: Trachelanthine
SCANNUMBER: RIKEN_MONA_386
PRECURSORMZ: 302.196199
PRECURSORTYPE: [M+H]+
IONMODE: Positive
SPECTRUMTYPE: MS2
COLLISIONENERGY: 10 eV
FORMULA: C15H27NO5
SMILES: CC(C)[C@](O)(C(=O)OC[C@H]1CC[N+]2([O-])CCC[C@@H]12)C(C)O
INCHI: InChI=1S/C15H27NO5/c1-10(2)15(19,11(3)17)14(18)21-9-12-6-8-16(20)7-4-5-13(12)16/h10-13,17,19H,4-9H2,1-3H3/t11?,12-,13+,15-,16?/m1/s1
INCHIKEY: DLNWZIVYKQXLTN-CGYUPCHJSA-N
RETENTIONTIME: 3.107783
COMMENT: dataset=RIKEN_MONA; source_file=external_data/raw_libraries/RIKEN_MONA.xlsx; source_row=386; RT_sec=186.46698
Num Peaks: 15
83.073630 1.200000
84.080630 1.300000
110.096930 1.600000
122.094920 0.500000
124.112030 3.100000
140.106930 3.200000
141.115430 4.900000
142.119510 0.500000
158.117920 51.500000
158.153820 1.500000
159.121260 5.000000
284.183780 1.100000
302.196380 100.000000
302.246120 3.600000
302.291780 0.600000

NAME: Triacetyl resveratrol
SCANNUMBER: RIKEN_MONA_387
PRECURSORMZ: 355.117615
PRECURSORTYPE: [M+H]+
IONMODE: Positive
SPECTRUMTYPE: MS2
COLLISIONENERGY: 10 eV
FORMULA: C20H18O6
SMILES: CC(=O)Oc1ccc(/C=C/c2cc(OC(C)=O)cc(OC(C)=O)c2)cc1
INCHI: InChI=1S/C20H18O6/c1-13(21)24-18-8-6-16(7-9-18)4-5-17-10-19(25-14(2)22)12-20(11-17)26-15(3)23/h4-12H,1-3H3/b5-4+
INCHIKEY: PDAYUJSOJIMKIS-SNAWJCMRSA-N
RETENTIONTIME: 8.455800
COMMENT: dataset=RIKEN_MONA; source_file=external_data/raw_libraries/RIKEN_MONA.xlsx; source_row=387; RT_sec=507.348
Num Peaks: 33
91.054890 1.000000
107.049790 6.700000
111.043190 1.100000
112.047560 0.500000
119.049380 4.700000
121.027620 1.100000
135.032120 0.600000
135.044660 16.000000
136.044270 1.000000
136.052190 1.000000
145.065430 1.100000
165.065670 1.400000
166.079060 0.600000
183.077640 3.100000
193.066450 0.800000
211.076430 3.200000
212.085240 0.700000
228.068250 0.800000
228.078080 2.900000
229.086040 55.100000
230.090000 7.400000
231.095080 1.600000
270.078190 0.600000
270.087830 1.400000
271.096470 100.000000
271.142700 0.600000
272.101840 20.100000
273.102450 3.100000
312.098360 2.800000
313.106290 48.700000
314.110110 11.100000
315.117680 1.300000
355.117710 6.500000

NAME: Tubotaiwine
SCANNUMBER: RIKEN_MONA_388
PRECURSORMZ: 325.191055
PRECURSORTYPE: [M+H]+
IONMODE: Positive
SPECTRUMTYPE: MS2
COLLISIONENERGY: 10 eV
FORMULA: C20H24N2O2
SMILES: CCC1C2CCN3CCC4(C(=C2C(=O)OC)Nc2ccccc24)C13
INCHI: InChI=1S/C20H24N2O2/c1-3-12-13-8-10-22-11-9-20(18(12)22)14-6-4-5-7-15(14)21-17(20)16(13)19(23)24-2/h4-7,12-13,18,21H,3,8-11H2,1-2H3
INCHIKEY: RLAKWLFUMAABBE-UHFFFAOYSA-N
RETENTIONTIME: 4.920516
COMMENT: dataset=RIKEN_MONA; source_file=external_data/raw_libraries/RIKEN_MONA.xlsx; source_row=388; RT_sec=295.23096
Num Peaks: 45
130.065690 0.800000
169.077930 0.700000
180.080490 1.400000
181.080720 1.100000
193.084550 1.800000
194.096370 3.200000
195.091370 0.800000
195.102200 0.700000
206.092830 1.300000
207.090410 1.000000
207.104770 2.000000
208.073490 0.600000
208.092930 0.800000
208.107500 2.400000
208.116990 0.800000
209.105830 0.800000
209.119540 0.800000
210.120410 0.600000
220.106600 0.600000
221.107670 0.800000
221.123030 0.800000
222.089920 1.600000
222.108640 0.700000
222.119930 2.000000
222.130230 2.500000
223.079390 1.100000
235.124860 0.700000
236.140320 2.900000
236.153960 0.800000
237.139390 1.700000
238.125320 0.600000
265.126220 0.700000
265.134160 1.600000
265.172060 0.800000
293.123350 0.900000
293.164920 100.000000
293.213650 1.000000
294.139920 0.700000
294.168730 17.700000
295.159730 0.800000
295.170290 1.900000
325.118470 0.800000
325.140750 1.000000
325.191040 86.600000
325.242650 1.500000

NAME: Vanillin acetate
SCANNUMBER: RIKEN_MONA_389
PRECURSORMZ: 195.065185
PRECURSORTYPE: [M+H]+
IONMODE: Positive
SPECTRUMTYPE: MS2
COLLISIONENERGY: 10 eV
FORMULA: C10H10O4
SMILES: COc1cc(C=O)ccc1OC(C)=O
INCHI: InChI=1S/C10H10O4/c1-7(12)14-9-4-3-8(6-11)5-10(9)13-2/h3-6H,1-2H3
INCHIKEY: PZSJOBKRSVRODF-UHFFFAOYSA-N
RETENTIONTIME: 5.589267
COMMENT: dataset=RIKEN_MONA; source_file=external_data/raw_libraries/RIKEN_MONA.xlsx; source_row=389; RT_sec=335.35602
Num Peaks: 18
65.040180 9.100000
65.045590 1.400000
93.033840 23.200000
94.038410 1.600000
109.928220 2.200000
110.033580 2.300000
111.978420 3.200000
113.962380 1.400000
125.047870 1.900000
125.059050 25.500000
126.062970 1.400000
126.070520 1.400000
152.098330 1.500000
153.054920 100.000000
154.059540 14.400000
156.992720 2.400000
157.119920 1.400000
194.126600 1.800000

NAME: Vasicine
SCANNUMBER: RIKEN_MONA_390
PRECURSORMZ: 189.102239
PRECURSORTYPE: [M+H]+
IONMODE: Positive
SPECTRUMTYPE: MS2
COLLISIONENERGY: 10 eV
FORMULA: C11H12N2O
SMILES: O[C@@H]1CCN2Cc3ccccc3N=C12
INCHI: InChI=1S/C11H12N2O/c14-10-5-6-13-7-8-3-1-2-4-9(8)12-11(10)13/h1-4,10,14H,5-7H2/t10-/m1/s1
INCHIKEY: YIICVSCAKJMMDJ-SNVBAGLBSA-N
RETENTIONTIME: 2.547517
COMMENT: dataset=RIKEN_MONA; source_file=external_data/raw_libraries/RIKEN_MONA.xlsx; source_row=390; RT_sec=152.85102
Num Peaks: 19
116.049960 1.000000
117.058650 0.700000
118.068100 8.800000
119.070130 0.600000
129.069670 0.700000
143.061550 0.600000
143.079470 1.500000
144.076860 0.800000
144.083850 1.400000
154.068130 2.100000
155.073870 0.800000
169.065050 0.500000
169.076800 1.800000
171.092510 18.600000
172.094760 2.600000
172.102260 0.700000
189.041990 0.600000
189.076390 1.100000
189.103120 100.000000

NAME: Vasicinone
SCANNUMBER: RIKEN_MONA_391
PRECURSORMZ: 203.081504
PRECURSORTYPE: [M+H]+
IONMODE: Positive
SPECTRUMTYPE: MS2
COLLISIONENERGY: 10 eV
FORMULA: C11H10N2O2
SMILES: O=c1c2ccccc2nc2n1CCC2O
INCHI: InChI=1S/C11H10N2O2/c14-9-5-6-13-10(9)12-8-4-2-1-3-7(8)11(13)15/h1-4,9,14H,5-6H2
INCHIKEY: SDIVYZXRQHWCKF-UHFFFAOYSA-N
RETENTIONTIME: 3.423867
COMMENT: dataset=RIKEN_MONA; source_file=external_data/raw_libraries/RIKEN_MONA.xlsx; source_row=391; RT_sec=205.43202
Num Peaks: 26
77.039150 0.800000
82.029620 4.700000
115.051350 0.500000
116.053270 0.600000
130.026950 0.600000
130.060670 0.700000
130.068190 2.500000
131.051380 0.600000
140.046480 1.500000
140.052660 0.500000
155.055860 0.600000
155.062410 0.600000
157.071330 1.100000
157.079420 2.300000
158.060640 1.100000
158.070040 0.800000
158.079670 0.800000
167.059200 3.800000
168.063870 0.800000
184.063400 3.100000
185.072050 93.800000
186.074660 9.700000
186.082600 2.600000
187.077000 0.900000
203.083280 100.000000
203.124850 1.400000

NAME: Vincamine
SCANNUMBER: RIKEN_MONA_392
PRECURSORMZ: 355.201619
PRECURSORTYPE: [M+H]+
IONMODE: Positive
SPECTRUMTYPE: MS2
COLLISIONENERGY: 10 eV
FORMULA: C21H26N2O3
SMILES: CCC12CCCN3CCc4c(n(c5ccccc45)C(O)(C(=O)OC)C1)C32
INCHI: InChI=1S/C21H26N2O3/c1-3-20-10-6-11-22-12-9-15-14-7-4-5-8-16(14)23(17(15)18(20)22)21(25,13-20)19(24)26-2/h4-5,7-8,18,25H,3,6,9-13H2,1-2H3
INCHIKEY: RXPRRQLKFXBCSJ-UHFFFAOYSA-N
RETENTIONTIME: 4.501250
COMMENT: dataset=RIKEN_MONA; source_file=external_data/raw_libraries/RIKEN_MONA.xlsx; source_row=392; RT_sec=270.075
Num Peaks: 46
144.081860 5.600000
152.107160 1.800000
194.115840 0.700000
205.090640 0.800000
206.094940 0.700000
208.114360 0.900000
212.132130 2.300000
220.115880 0.700000
221.122620 0.700000
222.127930 0.500000
234.122510 1.100000
234.135570 0.900000
235.129760 0.600000
248.149660 0.600000
249.140640 0.500000
250.157290 0.600000
264.101590 1.300000
265.102660 0.700000
265.115080 1.100000
266.111110 0.800000
266.122040 0.500000
267.124570 0.900000
268.126190 1.400000
268.136470 1.300000
268.145900 0.600000
277.169100 0.600000
278.118350 0.800000
279.118650 0.700000
279.128110 0.800000
280.134000 9.300000
281.137150 2.200000
292.128660 0.600000
292.141450 0.500000
294.151030 10.400000
295.146060 0.900000
295.159180 1.200000
295.181850 1.700000
307.146060 1.200000
308.161680 6.800000
309.167420 1.200000
310.186580 0.900000
337.190950 31.500000
338.193360 7.200000
339.196140 0.700000
355.203400 100.000000
355.256260 2.600000

NAME: Vincanidine
SCANNUMBER: RIKEN_MONA_393
PRECURSORMZ: 309.159754
PRECURSORTYPE: [M+H]+
IONMODE: Positive
SPECTRUMTYPE: MS2
COLLISIONENERGY: 10 eV
FORMULA: C19H20N2O2
SMILES: C/C=C1/CN2CC[C@]34C(=C(C=O)[C@H]1C[C@H]23)Nc1c(O)cccc14
INCHI: InChI=1S/C19H20N2O2/c1-2-11-9-21-7-6-19-14-4-3-5-15(23)17(14)20-18(19)13(10-22)12(11)8-16(19)21/h2-5,10,12,16,20,23H,6-9H2,1H3/b11-2-/t12-,16-,19+/m0/s1
INCHIKEY: JDOFCMASVRMYJU-JYTRXFNOSA-N
RETENTIONTIME: 3.378850
COMMENT: dataset=RIKEN_MONA; source_file=external_data/raw_libraries/RIKEN_MONA.xlsx; source_row=393; RT_sec=202.731
Num Peaks: 77
81.068340 0.600000
122.098830 0.700000
146.061290 3.100000
154.064730 1.000000
160.073290 1.700000
162.516570 0.500000
166.066760 0.900000
167.072810 1.000000
170.064670 1.100000
172.079610 0.800000
173.083480 0.600000
174.091600 1.600000
180.085950 0.600000
182.059690 0.500000
183.068210 0.700000
184.075070 3.200000
184.683900 0.600000
185.070570 3.200000
186.052830 1.000000
187.090190 2.100000
192.078450 0.600000
196.078840 4.400000
197.069890 1.200000
198.092290 0.800000
199.058580 0.500000
200.071270 0.500000
200.104310 0.600000
202.083510 0.600000
203.091720 0.500000
205.082790 0.500000
207.064760 0.600000
208.077330 0.800000
209.089070 0.900000
210.089450 1.000000
212.100540 1.000000
215.080200 2.100000
216.082230 0.900000
221.086210 0.500000
222.094150 0.600000
223.090320 2.700000
223.102100 1.400000
224.069500 0.600000
224.097640 1.400000
224.111820 1.100000
225.100690 1.100000
227.119000 0.700000
234.090500 1.000000
236.092590 1.000000
236.108860 2.700000
237.118390 0.700000
238.110690 1.300000
238.119670 3.100000
238.128450 0.900000
239.094180 0.600000
239.128400 0.700000
247.091370 1.000000
248.092940 0.700000
249.112870 0.700000
249.127790 0.600000
251.103530 0.700000
252.109830 0.500000
252.144410 2.000000
254.111620 0.900000
262.125700 0.600000
264.141270 2.900000
265.120570 0.500000
265.137020 0.700000
266.120210 2.300000
267.128910 0.500000
274.124270 0.800000
280.122860 0.700000
280.141050 1.900000
281.136570 0.600000
281.164400 1.300000
291.151090 1.200000
309.110750 1.100000
309.159880 100.000000

NAME: Viridiflorine
SCANNUMBER: RIKEN_MONA_394
PRECURSORMZ: 286.201285
PRECURSORTYPE: [M+H]+
IONMODE: Positive
SPECTRUMTYPE: MS2
COLLISIONENERGY: 10 eV
FORMULA: C15H27NO4
SMILES: CC(C)[C@@](O)(C(=O)OC[C@@H]1CCN2CCC[C@@H]12)[C@H](C)O
INCHI: InChI=1S/C15H27NO4/c1-10(2)15(19,11(3)17)14(18)20-9-12-6-8-16-7-4-5-13(12)16/h10-13,17,19H,4-9H2,1-3H3/t11-,12-,13-,15-/m0/s1
INCHIKEY: BWQSLRZZOVFVHJ-ABHRYQDASA-N
RETENTIONTIME: 3.052800
COMMENT: dataset=RIKEN_MONA; source_file=external_data/raw_libraries/RIKEN_MONA.xlsx; source_row=394; RT_sec=183.168
Num Peaks: 4
142.130070 13.500000
158.952730 10.400000
159.062870 10.900000
286.201690 100.000000

NAME: Voacamine
SCANNUMBER: RIKEN_MONA_395
PRECURSORMZ: 703.386494
PRECURSORTYPE: [M-H]-
IONMODE: Negative
SPECTRUMTYPE: MS2
COLLISIONENERGY: 10 eV
FORMULA: C43H52N4O5
SMILES: CC=C1CN(C)C2Cc3c([nH]c4ccccc34)C(c3cc4[nH]c5c(c4cc3OC)CCN3CC4CC(CC)C3C5(C(=O)OC)C4)CC1C2C(=O)OC
INCHI: InChI=1S/C43H52N4O5/c1-7-24-15-23-20-43(42(49)52-6)39-27(13-14-47(21-23)40(24)43)29-19-36(50-4)30(17-34(29)45-39)31-16-28-25(8-2)22-46(3)35(37(28)41(48)51-5)18-32-26-11-9-10-12-33(26)44-38(31)32/h8-12,17,19,23-24,28,31,35,37,40,44-45H,7,13-16,18,20-22H2,1-6H3
INCHIKEY: VCMIRXRRQJNZJT-UHFFFAOYSA-N
RETENTIONTIME: 4.938133
COMMENT: dataset=RIKEN_MONA; source_file=external_data/raw_libraries/RIKEN_MONA.xlsx; source_row=395; RT_sec=296.28798
Num Peaks: 48
196.096590 0.500000
231.695220 0.600000
272.997160 0.600000
352.175380 2.700000
353.188050 1.200000
353.206390 0.600000
353.431120 0.600000
354.174990 1.100000
366.187900 1.000000
367.202940 16.700000
368.199550 1.700000
368.214050 0.500000
379.198760 1.400000
405.252990 0.800000
472.146180 0.500000
490.248720 0.500000
494.255800 0.600000
495.246770 0.500000
504.228970 0.600000
506.244780 2.300000
507.236210 0.900000
507.265410 2.400000
507.295960 0.600000
512.851810 0.500000
519.363530 0.500000
522.286990 1.400000
534.267940 0.500000
546.558960 0.800000
548.263730 0.900000
548.276790 1.700000
549.274050 0.600000
550.271850 0.600000
550.294250 1.100000
551.296450 0.600000
552.313540 0.700000
592.569210 0.700000
596.504460 0.800000
641.304200 0.600000
641.325130 0.600000
642.309940 0.700000
671.344060 0.900000
688.359800 9.000000
688.379820 3.500000
689.356870 2.100000
689.373840 4.300000
690.331790 0.700000
703.310060 0.600000
703.388370 100.000000

NAME: Voacristine
SCANNUMBER: RIKEN_MONA_396
PRECURSORMZ: 385.212184
PRECURSORTYPE: [M+H]+
IONMODE: Positive
SPECTRUMTYPE: MS2
COLLISIONENERGY: 10 eV
FORMULA: C22H28N2O4
SMILES: COC(=O)[C@@]12C[C@H]3C[C@H]([C@H](C)O)[C@@H]1N(CCc1c2[nH]c2ccc(OC)cc12)C3
INCHI: InChI=1S/C22H28N2O4/c1-12(25)16-8-13-10-22(21(26)28-3)19-15(6-7-24(11-13)20(16)22)17-9-14(27-2)4-5-18(17)23-19/h4-5,9,12-13,16,20,23,25H,6-8,10-11H2,1-3H3/t12-,13+,16+,20-,22+/m0/s1
INCHIKEY: OYMQKBZMKFJPMH-VJMPXSKLSA-N
RETENTIONTIME: 4.611467
COMMENT: dataset=RIKEN_MONA; source_file=external_data/raw_libraries/RIKEN_MONA.xlsx; source_row=396; RT_sec=276.68802
Num Peaks: 28
122.094670 0.900000
136.112410 3.200000
148.109850 0.700000
174.091600 2.800000
186.091020 1.400000
187.089860 0.500000
198.092160 0.800000
200.108760 0.600000
201.105090 0.800000
210.085250 0.600000
210.094530 1.100000
244.095690 0.600000
246.114490 0.500000
251.119090 0.800000
279.148560 0.600000
292.157350 0.900000
293.162260 0.800000
307.182530 4.400000
308.174070 0.800000
308.183380 1.600000
335.174800 6.100000
336.179990 0.800000
367.201600 15.100000
368.205960 4.000000
369.206940 0.600000
385.149660 0.800000
385.211910 100.000000
385.269130 2.800000

NAME: Withanone
SCANNUMBER: RIKEN_MONA_397
PRECURSORMZ: 471.274115
PRECURSORTYPE: [M+H]+
IONMODE: Positive
SPECTRUMTYPE: MS2
COLLISIONENERGY: 10 eV
FORMULA: C28H38O6
SMILES: CC1=C(C)C(=O)O[C@@H]([C@@H](C)[C@@]2(O)CC[C@H]3[C@@H]4[C@@H]5O[C@@H]5[C@@]5(O)CC=CC(=O)[C@]5(C)[C@H]4CC[C@@]32C)C1
INCHI: InChI=1S/C28H38O6/c1-14-13-19(33-24(30)15(14)2)16(3)27(31)12-9-17-21-18(8-11-25(17,27)4)26(5)20(29)7-6-10-28(26,32)23-22(21)34-23/h6-7,16-19,21-23,31-32H,8-13H2,1-5H3/t16-,17+,18+,19-,21+,22+,23+,25+,26+,27+,28+/m1/s1
INCHIKEY: FAZIYUIDUNHZRG-PCTWTJKKSA-N
RETENTIONTIME: 6.823534
COMMENT: dataset=RIKEN_MONA; source_file=external_data/raw_libraries/RIKEN_MONA.xlsx; source_row=397; RT_sec=409.41204
Num Peaks: 10
68.060530 42.100000
153.096540 35.100000
171.075010 35.100000
181.095050 36.800000
220.093550 38.600000
263.138850 31.600000
283.159880 54.400000
417.253510 47.400000
435.254300 42.100000
471.275390 100.000000

NAME: Wogonin
SCANNUMBER: RIKEN_MONA_398
PRECURSORMZ: 285.075750
PRECURSORTYPE: [M+H]+
IONMODE: Positive
SPECTRUMTYPE: MS2
COLLISIONENERGY: 10 eV
FORMULA: C16H12O5
SMILES: COc1c(O)cc(O)c2c(=O)cc(-c3ccccc3)oc12
INCHI: InChI=1S/C16H12O5/c1-20-15-12(19)7-10(17)14-11(18)8-13(21-16(14)15)9-5-3-2-4-6-9/h2-8,17,19H,1H3
INCHIKEY: XLTFNNCXVBYBSX-UHFFFAOYSA-N
RETENTIONTIME: 7.272400
COMMENT: dataset=RIKEN_MONA; source_file=external_data/raw_libraries/RIKEN_MONA.xlsx; source_row=398; RT_sec=436.344
Num Peaks: 23
131.046600 0.500000
140.009780 0.900000
144.053250 0.600000
151.046690 0.700000
151.056150 1.200000
155.046590 1.000000
168.003010 1.800000
168.056340 2.200000
171.042340 1.400000
172.048810 0.700000
179.048780 4.800000
200.043080 0.700000
224.042400 0.800000
241.046450 1.400000
242.053240 1.600000
252.039890 2.700000
253.046010 0.700000
269.040920 1.500000
270.050810 57.900000
271.055080 9.000000
272.053250 1.000000
285.075960 100.000000
285.125550 1.600000

NAME: Yohimbic Acid
SCANNUMBER: RIKEN_MONA_399
PRECURSORMZ: 341.185969
PRECURSORTYPE: [M+H]+
IONMODE: Positive
SPECTRUMTYPE: MS2
COLLISIONENERGY: 10 eV
FORMULA: C20H24N2O3
SMILES: O=C(O)C1C(O)CCC2CN3CCc4c([nH]c5ccccc45)C3CC21
INCHI: InChI=1S/C20H24N2O3/c23-17-6-5-11-10-22-8-7-13-12-3-1-2-4-15(12)21-19(13)16(22)9-14(11)18(17)20(24)25/h1-4,11,14,16-18,21,23H,5-10H2,(H,24,25)
INCHIKEY: AADVZSXPNRLYLV-UHFFFAOYSA-N
RETENTIONTIME: 3.820100
COMMENT: dataset=RIKEN_MONA; source_file=external_data/raw_libraries/RIKEN_MONA.xlsx; source_row=399; RT_sec=229.206
Num Peaks: 13
117.071370 1.800000
134.095200 0.500000
143.073360 1.300000
144.080350 53.500000
145.084780 6.000000
162.089310 0.600000
180.100450 2.000000
198.113020 15.100000
199.116700 1.700000
210.113240 3.200000
312.154820 0.900000
341.185700 100.000000
341.238650 2.500000

NAME: [6]-Gingerol
SCANNUMBER: RIKEN_MONA_400
PRECURSORMZ: 293.175833
PRECURSORTYPE: [M-H]-
IONMODE: Negative
SPECTRUMTYPE: MS2
COLLISIONENERGY: 10 eV
FORMULA: C17H26O4
SMILES: CCCCCC(O)CC(=O)CCc1ccc(O)c(OC)c1
INCHI: InChI=1S/C17H26O4/c1-3-4-5-6-14(18)12-15(19)9-7-13-8-10-16(20)17(11-13)21-2/h8,10-11,14,18,20H,3-7,9,12H2,1-2H3
INCHIKEY: NLDDIKRKFXEWBK-UHFFFAOYSA-N
RETENTIONTIME: 7.449200
COMMENT: dataset=RIKEN_MONA; source_file=external_data/raw_libraries/RIKEN_MONA.xlsx; source_row=400; RT_sec=446.952
Num Peaks: 9
57.031070 6.800000
99.080860 100.000000
100.079500 8.000000
175.038770 16.000000
177.055340 8.000000
193.086670 7.200000
193.245940 7.600000
194.095200 10.600000
293.172300 53.200000

NAME: alpha,beta-Dihydroresveratrol
SCANNUMBER: RIKEN_MONA_401
PRECURSORMZ: 231.101571
PRECURSORTYPE: [M+H]+
IONMODE: Positive
SPECTRUMTYPE: MS2
COLLISIONENERGY: 10 eV
FORMULA: C14H14O3
SMILES: Oc1ccc(CCc2cc(O)cc(O)c2)cc1
INCHI: InChI=1S/C14H14O3/c15-12-5-3-10(4-6-12)1-2-11-7-13(16)9-14(17)8-11/h3-9,15-17H,1-2H2
INCHIKEY: HITJFUSPLYBJPE-UHFFFAOYSA-N
RETENTIONTIME: 5.145717
COMMENT: dataset=RIKEN_MONA; source_file=external_data/raw_libraries/RIKEN_MONA.xlsx; source_row=401; RT_sec=308.74302
Num Peaks: 50
51.021780 0.700000
56.017240 1.400000
68.995880 0.800000
77.026470 0.700000
77.039040 1.600000
79.049090 0.800000
79.052890 0.700000
81.072330 0.900000
91.054330 7.000000
91.061430 1.500000
93.030980 1.000000
93.070540 2.900000
94.039520 0.800000
103.052250 0.800000
103.059500 2.000000
105.749530 0.800000
107.049670 49.200000
107.888540 0.900000
108.048900 4.200000
108.058780 0.800000
109.048940 0.800000
109.064630 2.100000
109.074600 0.700000
110.066620 1.900000
110.193050 0.800000
110.948290 1.300000
119.046460 0.800000
121.032750 0.800000
121.046490 0.800000
121.065160 49.000000
122.065640 3.800000
122.074910 3.300000
123.045490 0.700000
125.060520 5.200000
137.059660 100.000000
138.059160 4.700000
138.070560 3.400000
139.053180 0.800000
139.064060 0.900000
139.117200 0.900000
149.950760 0.900000
155.190730 0.900000
156.718580 0.800000
178.075870 0.700000
183.076920 0.800000
213.079990 0.800000
214.106120 0.900000
231.021680 1.100000
231.067900 0.800000
231.103560 92.200000

NAME: alpha-Chaconine
SCANNUMBER: RIKEN_MONA_402
PRECURSORMZ: 852.510382
PRECURSORTYPE: [M+H]+
IONMODE: Positive
SPECTRUMTYPE: MS2
COLLISIONENERGY: 10 eV
FORMULA: C45H73NO14
SMILES: C[C@H]1CC[C@@H]2[C@@H](C)[C@H]3[C@H](C[C@H]4[C@@H]5CC=C6C[C@@H](O[C@@H]7O[C@H](CO)[C@H](O[C@@H]8O[C@@H](C)[C@H](O)[C@@H](O)[C@H]8O)[C@H](O)[C@@H]7O[C@@H]7O[C@@H](C)[C@@H](O)[C@@H](O)[C@H]7O)CC[C@]6(C)[C@H]5CC[C@@]43C)N2C1
INCHI: InChI=1S/C45H73NO14/c1-19-7-10-28-20(2)31-29(46(28)17-19)16-27-25-9-8-23-15-24(11-13-44(23,5)26(25)12-14-45(27,31)6)57-43-40(60-42-37(53)35(51)33(49)22(4)56-42)38(54)39(30(18-47)58-43)59-41-36(52)34(50)32(48)21(3)55-41/h8,19-22,24-43,47-54H,7,9-18H2,1-6H3/t19-,20+,21-,22-,24-,25+,26-,27-,28+,29-,30+,31-,32-,33+,34+,35+,36+,37+,38-,39-,40-,41-,42-,43+,44-,45-/m0/s1
INCHIKEY: TYNQWWGVEGFKRU-OHIAVPKISA-N
RETENTIONTIME: 5.013250
COMMENT: dataset=RIKEN_MONA; source_file=external_data/raw_libraries/RIKEN_MONA.xlsx; source_row=402; RT_sec=300.795
Num Peaks: 3
852.405090 0.500000
852.508850 100.000000
852.609010 0.600000

NAME: alpha-Hederin
SCANNUMBER: RIKEN_MONA_403
PRECURSORMZ: 751.462704
PRECURSORTYPE: [M+H]+
IONMODE: Positive
SPECTRUMTYPE: MS2
COLLISIONENERGY: 10 eV
FORMULA: C41H66O12
SMILES: C[C@@H]1O[C@@H](O[C@H]2[C@H](O[C@H]3CC[C@@]4(C)[C@@H](CC[C@]5(C)[C@@H]4CC=C4[C@@H]6CC(C)(C)CC[C@]6(C(=O)O)CC[C@]45C)[C@]3(C)CO)OC[C@H](O)[C@@H]2O)[C@H](O)[C@H](O)[C@H]1O
INCHI: InChI=1S/C41H66O12/c1-21-28(44)30(46)31(47)33(51-21)53-32-29(45)24(43)19-50-34(32)52-27-11-12-37(4)25(38(27,5)20-42)10-13-40(7)26(37)9-8-22-23-18-36(2,3)14-16-41(23,35(48)49)17-15-39(22,40)6/h8,21,23-34,42-47H,9-20H2,1-7H3,(H,48,49)/t21-,23-,24-,25+,26+,27-,28-,29-,30+,31+,32+,33-,34-,37-,38-,39+,40+,41-/m0/s1
INCHIKEY: KEOITPILCOILGM-LLJOFIFVSA-N
RETENTIONTIME: 7.959350
COMMENT: dataset=RIKEN_MONA; source_file=external_data/raw_libraries/RIKEN_MONA.xlsx; source_row=403; RT_sec=477.561
Num Peaks: 135
76.043550 2.000000
112.256140 1.500000
113.061770 2.500000
115.040040 5.000000
129.061230 1.800000
133.046200 2.300000
133.104800 1.800000
134.109880 1.800000
135.116730 2.100000
137.064830 1.800000
139.047090 2.500000
139.099520 2.400000
143.043320 2.300000
147.053070 1.600000
147.060350 3.800000
147.069230 1.800000
149.135280 4.000000
163.143340 1.800000
175.155000 1.500000
177.158650 1.600000
179.073120 1.900000
187.150470 1.700000
187.167450 1.700000
188.159730 2.000000
189.164540 8.000000
190.161820 4.300000
191.180970 3.700000
192.194210 1.900000
195.174620 1.600000
196.175920 1.800000
201.158810 1.600000
201.173900 1.500000
202.173740 1.500000
203.167250 1.700000
203.182420 5.100000
204.176130 2.500000
205.153790 1.800000
207.178120 7.100000
213.077270 4.600000
215.163620 2.000000
215.181660 1.700000
218.677640 1.500000
219.192490 2.600000
221.202450 1.900000
225.067030 1.600000
225.086380 3.800000
226.080370 1.900000
227.186540 1.500000
239.187610 1.500000
242.628300 1.900000
243.086150 7.100000
243.211040 1.700000
247.156950 1.800000
247.179600 3.700000
250.697830 1.600000
251.190030 1.800000
260.184420 1.500000
261.085750 1.800000
261.102510 1.700000
262.193360 1.800000
273.175750 2.500000
275.202970 2.400000
279.109620 19.900000
279.121670 6.600000
280.108700 3.300000
281.160710 2.200000
281.209530 2.900000
284.229890 2.100000
285.215640 1.800000
315.228490 1.500000
327.228610 2.000000
329.245000 1.500000
351.294590 1.600000
351.317660 1.600000
388.268460 2.100000
391.329530 6.000000
391.347170 2.500000
392.331450 2.500000
392.346560 1.600000
397.298610 4.900000
397.320560 2.100000
398.316650 4.500000
409.351620 17.000000
410.343540 4.900000
410.374150 2.000000
411.355870 2.100000
419.301300 1.700000
420.307680 1.900000
425.327940 3.700000
425.341770 3.100000
426.343410 1.600000
427.355470 1.500000
427.385500 2.100000
437.217130 1.600000
437.334990 34.000000
437.351350 27.500000
437.909790 2.700000
438.349910 38.200000
438.386080 1.900000
439.341950 1.600000
455.308720 2.000000
455.351380 70.900000
456.343570 15.500000
456.362640 9.100000
456.442840 1.500000
467.410770 2.000000
467.619480 2.400000
468.563050 2.100000
473.353490 1.500000
473.367430 3.000000
474.364750 1.500000
508.354430 2.100000
519.372740 1.800000
519.410220 2.000000
523.353580 1.700000
565.410830 2.100000
566.420410 1.500000
569.375730 1.700000
583.402530 3.300000
587.380680 3.300000
588.388790 1.700000
602.399170 1.900000
602.437740 1.600000
603.414490 1.800000
605.403200 3.200000
619.410460 16.400000
619.448850 6.300000
620.382080 1.600000
620.418150 14.000000
621.440920 1.800000
737.192320 2.100000
751.389100 2.000000
751.462830 100.000000
751.523380 1.500000
751.557070 1.700000

NAME: alpha-Solanine
SCANNUMBER: RIKEN_MONA_404
PRECURSORMZ: 868.505297
PRECURSORTYPE: [M+H]+
IONMODE: Positive
SPECTRUMTYPE: MS2
COLLISIONENERGY: 10 eV
FORMULA: C45H73NO15
SMILES: C[C@H]1CC[C@@H]2[C@@H](C)[C@H]3[C@H](C[C@H]4[C@@H]5CC=C6C[C@@H](O[C@@H]7O[C@H](CO)[C@H](O)[C@H](O[C@@H]8O[C@H](CO)[C@@H](O)[C@H](O)[C@H]8O)[C@H]7O[C@@H]7O[C@@H](C)[C@H](O)[C@@H](O)[C@H]7O)CC[C@]6(C)[C@H]5CC[C@@]43C)N2C1
INCHI: InChI=1S/C45H73NO15/c1-19-6-9-27-20(2)31-28(46(27)16-19)15-26-24-8-7-22-14-23(10-12-44(22,4)25(24)11-13-45(26,31)5)57-43-40(61-41-37(54)35(52)32(49)21(3)56-41)39(34(51)30(18-48)59-43)60-42-38(55)36(53)33(50)29(17-47)58-42/h7,19-21,23-43,47-55H,6,8-18H2,1-5H3/t19-,20+,21-,23-,24+,25-,26-,27+,28-,29+,30+,31-,32-,33+,34-,35+,36-,37+,38+,39-,40+,41-,42-,43+,44-,45-/m0/s1
INCHIKEY: ZGVSETXHNHBTRK-UDJLNJFBSA-N
RETENTIONTIME: 4.953950
COMMENT: dataset=RIKEN_MONA; source_file=external_data/raw_libraries/RIKEN_MONA.xlsx; source_row=404; RT_sec=297.236999999999
Num Peaks: 4
868.375180 0.500000
868.412480 1.300000
868.502750 100.000000
868.591490 1.300000

NAME: cis-resveratrol
SCANNUMBER: RIKEN_MONA_405
PRECURSORMZ: 229.085921
PRECURSORTYPE: [M+H]+
IONMODE: Positive
SPECTRUMTYPE: MS2
COLLISIONENERGY: 10 eV
FORMULA: C14H12O3
SMILES: Oc1ccc(/C=C\c2cc(O)cc(O)c2)cc1
INCHI: InChI=1S/C14H12O3/c15-12-5-3-10(4-6-12)1-2-11-7-13(16)9-14(17)8-11/h1-9,15-17H/b2-1-
INCHIKEY: LUKBXSAWLPMMSZ-UPHRSURJSA-N
RETENTIONTIME: 5.593217
COMMENT: dataset=RIKEN_MONA; source_file=external_data/raw_libraries/RIKEN_MONA.xlsx; source_row=405; RT_sec=335.59302
Num Peaks: 96
65.036210 1.600000
77.033520 2.000000
78.034230 0.700000
85.076260 0.600000
89.041830 1.200000
91.045620 1.400000
91.054250 6.500000
93.030330 0.700000
95.051260 1.500000
96.049460 0.800000
103.055040 1.900000
107.017910 0.600000
107.034450 0.700000
107.045350 7.800000
107.049390 17.400000
108.048750 0.700000
108.052670 1.300000
109.026500 1.200000
111.052220 0.700000
115.049860 0.600000
118.023390 0.700000
119.047260 11.300000
120.056650 6.100000
121.019410 0.700000
121.027450 1.100000
123.039820 0.600000
129.063840 0.600000
133.060460 0.600000
134.034610 1.300000
135.005170 0.600000
135.030870 1.200000
135.043490 27.600000
135.055710 0.600000
136.047780 2.400000
137.024190 0.500000
140.058910 0.900000
141.063570 1.300000
141.072710 2.200000
142.071370 0.900000
143.031270 0.600000
143.050320 0.600000
145.027040 1.300000
145.057540 0.600000
145.099520 0.800000
146.056000 0.800000
152.064710 2.700000
153.070660 2.400000
154.068850 0.500000
154.077360 1.400000
155.077620 0.700000
155.083920 1.600000
157.066910 2.400000
158.071350 0.600000
158.077960 1.400000
161.051880 0.600000
162.103330 0.700000
164.059970 0.500000
165.066100 6.300000
165.073760 4.000000
166.073150 2.500000
168.062350 0.700000
171.081790 0.700000
173.039960 0.800000
173.055450 1.500000
173.984130 0.700000
174.100880 0.700000
181.042220 1.400000
181.057160 1.100000
181.076110 1.400000
182.070310 0.800000
183.068760 1.800000
183.076290 2.800000
183.086580 3.100000
184.046140 0.600000
193.065830 1.900000
197.056200 0.900000
200.764660 0.600000
201.093060 0.700000
210.061130 1.700000
210.070630 1.200000
210.077870 0.700000
211.071290 3.300000
211.081020 4.900000
212.076690 0.700000
213.050260 1.600000
213.057280 0.800000
214.054050 0.600000
227.057300 0.500000
227.068120 2.000000
228.058870 0.700000
228.077740 16.300000
228.447190 0.900000
229.031950 0.700000
229.041000 0.500000
229.065310 1.100000
229.085160 100.000000

NAME: epsilon-Viniferin
SCANNUMBER: RIKEN_MONA_406
PRECURSORMZ: 455.148915
PRECURSORTYPE: [M+H]+
IONMODE: Positive
SPECTRUMTYPE: MS2
COLLISIONENERGY: 10 eV
FORMULA: C28H22O6
SMILES: Oc1ccc(/C=C/c2cc(O)cc3c2[C@@H](c2cc(O)cc(O)c2)[C@H](c2ccc(O)cc2)O3)cc1
INCHI: InChI=1S/C28H22O6/c29-20-7-2-16(3-8-20)1-4-18-11-24(33)15-25-26(18)27(19-12-22(31)14-23(32)13-19)28(34-25)17-5-9-21(30)10-6-17/h1-15,27-33H/b4-1+/t27-,28+/m1/s1
INCHIKEY: FQWLMRXWKZGLFI-YVYUXZJTSA-N
RETENTIONTIME: 5.807217
COMMENT: dataset=RIKEN_MONA; source_file=external_data/raw_libraries/RIKEN_MONA.xlsx; source_row=406; RT_sec=348.43302
Num Peaks: 94
107.049460 16.300000
108.052350 1.000000
119.050830 0.700000
123.044600 0.600000
133.030290 0.800000
137.018110 0.600000
141.067250 0.500000
145.067400 0.800000
157.062640 1.700000
168.741290 0.800000
169.061890 0.500000
169.070820 1.000000
171.044460 0.900000
181.064290 4.100000
197.055860 2.400000
197.067570 0.700000
199.074770 16.000000
200.074340 0.700000
200.084930 0.500000
209.057540 0.800000
211.069870 1.000000
211.082310 1.300000
213.056500 0.800000
215.071040 22.100000
216.061190 0.600000
216.077770 3.800000
217.076160 0.500000
221.062940 1.000000
223.071520 1.100000
225.055020 0.800000
227.073330 5.700000
228.074360 0.900000
233.060990 0.700000
239.067920 9.500000
239.090880 0.700000
240.070140 1.000000
241.050250 0.500000
241.085160 0.500000
241.099990 0.600000
242.835480 0.500000
243.063280 0.500000
243.075810 0.600000
250.057390 0.600000
251.070040 2.600000
252.067290 0.700000
252.080350 0.900000
255.064650 5.600000
256.076840 0.800000
264.065220 0.500000
267.057340 2.000000
267.073610 1.400000
269.091520 0.600000
272.083280 0.600000
277.091220 0.600000
289.093960 0.800000
301.091890 0.600000
302.090000 0.700000
302.104580 0.600000
303.105930 0.800000
313.084720 0.700000
314.084930 0.600000
315.102260 1.000000
317.111880 0.500000
326.096710 0.500000
329.071990 1.000000
330.095610 0.500000
331.084200 1.400000
332.105650 3.500000
333.098360 0.700000
333.116300 0.900000
343.093410 3.300000
344.110500 0.900000
345.103670 1.200000
345.116420 1.400000
346.109950 0.800000
347.093870 2.100000
348.086240 0.900000
348.102290 2.300000
349.077330 1.300000
349.105960 12.900000
349.119930 3.400000
350.103580 2.300000
350.119050 0.800000
360.097990 0.900000
361.084170 1.100000
361.106320 5.400000
361.120300 2.900000
362.104310 1.300000
437.127320 0.900000
438.146880 1.400000
454.121220 0.600000
454.141110 2.500000
455.095920 1.300000
455.148650 100.000000

NAME: isoliquiritigenin
SCANNUMBER: RIKEN_MONA_407
PRECURSORMZ: 257.080835
PRECURSORTYPE: [M+H]+
IONMODE: Positive
SPECTRUMTYPE: MS2
COLLISIONENERGY: 10 eV
FORMULA: C15H12O4
SMILES: O=C(/C=C/c1ccc(O)cc1)c1ccc(O)cc1O
INCHI: InChI=1S/C15H12O4/c16-11-4-1-10(2-5-11)3-8-14(18)13-7-6-12(17)9-15(13)19/h1-9,16-17,19H/b8-3+
INCHIKEY: DXDRHHKMWQZJHT-FPYGCLRLSA-N
RETENTIONTIME: 6.433900
COMMENT: dataset=RIKEN_MONA; source_file=external_data/raw_libraries/RIKEN_MONA.xlsx; source_row=407; RT_sec=386.034
Num Peaks: 26
81.033120 2.200000
91.050350 0.800000
91.054620 1.600000
93.034070 0.700000
107.047270 0.800000
109.028790 2.100000
110.033660 0.500000
117.029660 0.600000
117.037170 1.400000
119.047220 5.400000
123.041830 1.200000
137.023040 52.600000
138.024060 3.200000
147.042890 19.000000
148.043730 0.600000
148.052780 0.600000
165.069050 2.100000
211.075970 4.400000
215.075810 0.800000
239.059400 1.200000
239.072780 3.600000
240.074070 1.100000
242.051940 1.100000
257.037780 0.600000
257.080810 100.000000
257.126370 0.800000

NAME: isookanin-7-O-glucoside
SCANNUMBER: RIKEN_MONA_408
PRECURSORMZ: 451.123488
PRECURSORTYPE: [M+H]+
IONMODE: Positive
SPECTRUMTYPE: MS2
COLLISIONENERGY: 10 eV
FORMULA: C21H22O11
SMILES: O=C1C[C@@H](c2ccc(O)c(O)c2)Oc2c1ccc(O[C@@H]1O[C@H](CO)[C@@H](O)[C@H](O)[C@H]1O)c2O
INCHI: InChI=1S/C21H22O11/c22-7-15-16(26)18(28)19(29)21(32-15)31-13-4-2-9-11(24)6-14(30-20(9)17(13)27)8-1-3-10(23)12(25)5-8/h1-5,14-16,18-19,21-23,25-29H,6-7H2/t14-,15+,16+,18-,19+,21+/m0/s1
INCHIKEY: DGGOLFCPSUVVHX-RTHJTPBESA-N
RETENTIONTIME: 3.473967
COMMENT: dataset=RIKEN_MONA; source_file=external_data/raw_libraries/RIKEN_MONA.xlsx; source_row=408; RT_sec=208.43802
Num Peaks: 26
125.028970 3.100000
145.028380 1.900000
153.013260 8.800000
153.024660 2.200000
163.038530 14.900000
164.042690 1.800000
179.032320 3.600000
225.051670 3.800000
235.034230 2.200000
236.883190 4.300000
253.052400 1.900000
271.051570 2.700000
271.063870 2.500000
271.075680 2.200000
272.060090 1.900000
274.040310 3.300000
288.046780 1.900000
288.056400 1.400000
289.046940 6.000000
289.069400 100.000000
290.063750 4.100000
290.079280 18.600000
291.079710 1.800000
291.093440 1.500000
451.102200 4.400000
451.133850 2.200000

NAME: isorhamnetin
SCANNUMBER: RIKEN_MONA_409
PRECURSORMZ: 317.065579
PRECURSORTYPE: [M+H]+
IONMODE: Positive
SPECTRUMTYPE: MS2
COLLISIONENERGY: 10 eV
FORMULA: C16H12O7
SMILES: COc1cc(-c2oc3cc(O)cc(O)c3c(=O)c2O)ccc1O
INCHI: InChI=1S/C16H12O7/c1-22-11-4-7(2-3-9(11)18)16-15(21)14(20)13-10(19)5-8(17)6-12(13)23-16/h2-6,17-19,21H,1H3
INCHIKEY: IZQSVPBOUDKVDZ-UHFFFAOYSA-N
RETENTIONTIME: 6.135867
COMMENT: dataset=RIKEN_MONA; source_file=external_data/raw_libraries/RIKEN_MONA.xlsx; source_row=409; RT_sec=368.15202
Num Peaks: 34
93.031910 0.900000
121.030090 1.100000
122.032850 0.500000
139.036830 0.700000
153.007510 2.100000
153.018680 9.000000
154.024380 0.600000
165.018020 0.500000
173.056410 0.700000
183.056140 0.600000
203.040920 0.500000
217.055710 2.200000
218.051250 1.100000
228.037140 1.600000
228.046170 1.000000
229.050420 4.300000
230.047040 1.100000
231.027740 1.200000
245.042970 1.700000
246.052310 1.200000
246.064300 0.600000
257.043490 2.800000
258.050570 0.700000
273.039860 1.500000
274.048280 2.300000
275.042390 0.700000
284.023900 0.900000
285.039520 5.100000
286.045840 0.700000
287.019260 0.600000
302.043180 12.300000
303.047060 1.300000
317.066470 100.000000
317.118740 0.800000

NAME: isorhamnetin-3-O-galactoside-6''-rhamnoside
SCANNUMBER: RIKEN_MONA_410
PRECURSORMZ: 625.176311
PRECURSORTYPE: [M+H]+
IONMODE: Positive
SPECTRUMTYPE: MS2
COLLISIONENERGY: 10 eV
FORMULA: C28H32O16
SMILES: COc1cc(-c2oc3cc(O)cc(O)c3c(=O)c2O[C@@H]2O[C@H](CO[C@@H]3O[C@@H](C)[C@H](O)[C@@H](O)[C@H]3O)[C@H](O)[C@H](O)[C@H]2O)ccc1O
INCHI: InChI=1S/C28H32O16/c1-9-18(32)21(35)23(37)27(41-9)40-8-16-19(33)22(36)24(38)28(43-16)44-26-20(34)17-13(31)6-11(29)7-15(17)42-25(26)10-3-4-12(30)14(5-10)39-2/h3-7,9,16,18-19,21-24,27-33,35-38H,8H2,1-2H3/t9-,16+,18-,19-,21+,22-,23+,24+,27+,28-/m0/s1
INCHIKEY: UIDGLYUNOUKLBM-ZLADREHTSA-N
RETENTIONTIME: 4.171433
COMMENT: dataset=RIKEN_MONA; source_file=external_data/raw_libraries/RIKEN_MONA.xlsx; source_row=410; RT_sec=250.28598
Num Peaks: 30
86.036130 0.800000
129.052430 1.600000
147.070040 1.100000
165.002760 0.700000
200.068040 0.700000
224.511110 0.700000
305.282900 1.500000
317.004970 0.800000
317.034390 2.400000
317.064790 100.000000
317.313110 0.700000
318.063480 6.400000
318.075230 9.700000
319.069850 3.800000
319.081180 1.600000
329.079220 0.800000
331.058750 0.700000
341.064610 1.500000
419.692810 0.600000
464.135890 1.000000
478.990720 1.100000
479.081940 0.600000
479.110440 6.800000
479.130830 2.100000
479.148590 0.900000
480.128080 3.700000
480.148590 0.900000
487.134860 0.700000
625.165830 1.400000
625.192630 9.400000

NAME: isorhamnetin-3-O-glucoside
SCANNUMBER: RIKEN_MONA_411
PRECURSORMZ: 479.118403
PRECURSORTYPE: [M+H]+
IONMODE: Positive
SPECTRUMTYPE: MS2
COLLISIONENERGY: 10 eV
FORMULA: C22H22O12
SMILES: COc1cc(-c2oc3cc(O)cc(O)c3c(=O)c2O[C@@H]2O[C@H](CO)[C@@H](O)[C@H](O)[C@H]2O)ccc1O
INCHI: InChI=1S/C22H22O12/c1-31-12-4-8(2-3-10(12)25)20-21(17(28)15-11(26)5-9(24)6-13(15)32-20)34-22-19(30)18(29)16(27)14(7-23)33-22/h2-6,14,16,18-19,22-27,29-30H,7H2,1H3/t14-,16-,18+,19-,22+/m1/s1
INCHIKEY: CQLRUIIRRZYHHS-LFXZADKFSA-N
RETENTIONTIME: 4.393083
COMMENT: dataset=RIKEN_MONA; source_file=external_data/raw_libraries/RIKEN_MONA.xlsx; source_row=411; RT_sec=263.58498
Num Peaks: 27
85.028570 0.700000
97.027860 1.000000
127.041530 1.500000
140.040540 0.800000
145.047940 1.200000
165.025270 1.300000
229.054500 1.100000
273.049220 0.900000
274.037720 2.700000
274.053100 1.000000
285.047760 1.300000
302.038090 5.400000
303.008880 0.800000
304.048400 1.400000
304.067500 1.000000
313.423650 0.800000
317.025910 2.100000
317.042660 4.000000
317.066470 100.000000
318.061650 6.600000
318.071930 16.000000
319.058070 2.300000
319.082370 4.900000
321.611720 0.700000
329.070100 1.600000
479.109310 2.400000
479.135310 1.800000

NAME: isorhamnetin-3-O-rutinoside
SCANNUMBER: RIKEN_MONA_412
PRECURSORMZ: 625.176311
PRECURSORTYPE: [M+H]+
IONMODE: Positive
SPECTRUMTYPE: MS2
COLLISIONENERGY: 10 eV
FORMULA: C28H32O16
SMILES: COc1cc(-c2oc3cc(O)cc(O)c3c(=O)c2O[C@@H]2O[C@H](CO[C@@H]3O[C@@H](C)[C@H](O)[C@@H](O)[C@H]3O)[C@@H](O)[C@H](O)[C@H]2O)ccc1O
INCHI: InChI=1S/C28H32O16/c1-9-18(32)21(35)23(37)27(41-9)40-8-16-19(33)22(36)24(38)28(43-16)44-26-20(34)17-13(31)6-11(29)7-15(17)42-25(26)10-3-4-12(30)14(5-10)39-2/h3-7,9,16,18-19,21-24,27-33,35-38H,8H2,1-2H3/t9-,16+,18-,19+,21+,22-,23+,24+,27+,28-/m0/s1
INCHIKEY: UIDGLYUNOUKLBM-GEBJFKNCSA-N
RETENTIONTIME: 4.193300
COMMENT: dataset=RIKEN_MONA; source_file=external_data/raw_libraries/RIKEN_MONA.xlsx; source_row=412; RT_sec=251.597999999999
Num Peaks: 25
85.027320 1.100000
85.031990 1.100000
87.031300 0.800000
127.038120 0.700000
129.057170 1.800000
145.051510 0.700000
203.288480 0.500000
245.016220 0.600000
255.096600 0.500000
302.047360 1.000000
317.066530 100.000000
318.065980 19.800000
318.089230 1.400000
319.072910 2.000000
319.088650 0.800000
461.117800 0.600000
463.142970 0.700000
479.080140 0.600000
479.108800 6.500000
479.130430 3.900000
480.119450 3.300000
481.105190 0.800000
575.041200 0.500000
625.152830 2.900000
625.179870 15.300000

NAME: isorhamnetin-3-glucoside-4'-glucoside (Isorhamnetin 3,4'-diglucoside)
SCANNUMBER: RIKEN_MONA_413
PRECURSORMZ: 639.156673
PRECURSORTYPE: [M-H]-
IONMODE: Negative
SPECTRUMTYPE: MS2
COLLISIONENERGY: 10 eV
FORMULA: C28H32O17
SMILES: COc1cc(-c2oc3cc(O)cc(O)c3c(=O)c2OC2OC(CO)C(O)C(O)C2O)ccc1OC1OC(CO)C(O)C(O)C1O
INCHI: InChI=1S/C28H32O17/c1-40-13-4-9(2-3-12(13)42-27-23(38)21(36)18(33)15(7-29)43-27)25-26(20(35)17-11(32)5-10(31)6-14(17)41-25)45-28-24(39)22(37)19(34)16(8-30)44-28/h2-6,15-16,18-19,21-24,27-34,36-39H,7-8H2,1H3
INCHIKEY: VKVBSQRURLRCHO-UHFFFAOYSA-N
RETENTIONTIME: 3.229367
COMMENT: dataset=RIKEN_MONA; source_file=external_data/raw_libraries/RIKEN_MONA.xlsx; source_row=413; RT_sec=193.76202
Num Peaks: 61
59.013840 0.500000
150.999400 0.600000
167.486690 0.800000
178.993960 0.500000
200.956680 0.500000
242.007390 0.600000
243.032360 1.200000
246.865170 0.600000
255.022990 0.700000
270.013120 2.100000
285.038760 1.500000
285.050230 0.600000
287.398560 0.500000
292.838470 0.800000
295.025020 0.500000
298.003750 0.700000
299.018650 4.400000
300.025760 4.300000
303.065610 0.500000
306.843020 0.600000
311.041140 0.700000
313.032960 43.700000
314.039830 17.600000
314.962370 0.500000
315.048130 63.900000
315.102940 0.700000
316.054140 11.100000
317.051850 0.700000
320.122990 0.500000
329.057100 1.000000
356.055760 1.200000
357.057860 3.600000
359.072940 1.300000
368.100520 0.600000
374.800020 0.600000
379.077670 0.600000
381.050750 1.200000
402.070680 0.700000
413.279020 0.600000
442.079380 0.600000
461.081910 3.200000
462.051180 0.600000
462.074070 0.600000
476.091220 12.300000
477.101560 74.600000
478.105410 18.400000
479.100520 2.800000
479.115260 1.800000
491.065250 0.900000
514.980040 0.600000
519.117370 3.600000
520.102480 1.900000
520.126950 2.700000
521.127320 0.600000
611.115540 0.800000
625.631840 0.600000
626.695860 0.900000
631.566040 0.500000
636.915470 0.700000
638.731870 0.600000
639.154970 100.000000

NAME: isosakuranetin
SCANNUMBER: RIKEN_MONA_414
PRECURSORMZ: 287.091400
PRECURSORTYPE: [M+H]+
IONMODE: Positive
SPECTRUMTYPE: MS2
COLLISIONENERGY: 10 eV
FORMULA: C16H14O5
SMILES: COc1ccc([C@@H]2CC(=O)c3c(O)cc(O)cc3O2)cc1
INCHI: InChI=1S/C16H14O5/c1-20-11-4-2-9(3-5-11)14-8-13(19)16-12(18)6-10(17)7-15(16)21-14/h2-7,14,17-18H,8H2,1H3/t14-/m0/s1
INCHIKEY: HMUJXQRRKBLVOO-AWEZNQCLSA-N
RETENTIONTIME: 7.441050
COMMENT: dataset=RIKEN_MONA; source_file=external_data/raw_libraries/RIKEN_MONA.xlsx; source_row=414; RT_sec=446.462999999999
Num Peaks: 24
103.053550 0.900000
109.067350 0.600000
118.042880 1.700000
121.059520 0.500000
133.064760 12.400000
134.065380 1.000000
135.076580 0.800000
135.084090 0.700000
137.049480 0.600000
137.058870 0.600000
153.017410 70.600000
154.015660 2.300000
154.023300 2.000000
155.020170 0.700000
161.059390 31.300000
162.056340 2.000000
162.065120 2.100000
179.031540 0.500000
179.041930 0.700000
203.072250 0.800000
245.077930 0.800000
269.077550 0.500000
287.091160 100.000000
287.139400 1.600000

NAME: isosakuranetin-7-O-neohesperidoside
SCANNUMBER: RIKEN_MONA_415
PRECURSORMZ: 595.202132
PRECURSORTYPE: [M+H]+
IONMODE: Positive
SPECTRUMTYPE: MS2
COLLISIONENERGY: 10 eV
FORMULA: C28H34O14
SMILES: COc1ccc([C@@H]2CC(=O)c3c(O)cc(O[C@@H]4O[C@H](CO)[C@@H](O)[C@H](O)[C@H]4O[C@@H]4O[C@@H](C)[C@H](O)[C@@H](O)[C@H]4O)cc3O2)cc1
INCHI: InChI=1S/C28H34O14/c1-11-21(32)23(34)25(36)27(38-11)42-26-24(35)22(33)19(10-29)41-28(26)39-14-7-15(30)20-16(31)9-17(40-18(20)8-14)12-3-5-13(37-2)6-4-12/h3-8,11,17,19,21-30,32-36H,9-10H2,1-2H3/t11-,17-,19+,21-,22+,23+,24-,25+,26+,27-,28+/m0/s1
INCHIKEY: NLAWPKPYBMEWIR-SKYQDXIQSA-N
RETENTIONTIME: 5.415350
COMMENT: dataset=RIKEN_MONA; source_file=external_data/raw_libraries/RIKEN_MONA.xlsx; source_row=415; RT_sec=324.921
Num Peaks: 83
63.043990 1.900000
71.047870 1.500000
85.007460 1.300000
85.030240 2.000000
85.049660 1.400000
145.050780 1.000000
147.064560 1.700000
153.014830 11.100000
154.024220 3.800000
161.063050 1.100000
162.066800 1.300000
165.005940 1.300000
179.074580 1.700000
195.028140 5.700000
204.037110 1.300000
208.066820 1.200000
215.030870 1.300000
219.024220 6.100000
221.031200 1.100000
223.680480 1.700000
231.035490 1.000000
243.023410 1.400000
245.025540 1.200000
245.044950 3.800000
246.507900 1.100000
247.041230 1.200000
263.056790 7.400000
264.058410 2.600000
283.067080 1.500000
286.679050 1.200000
287.092440 100.000000
288.068880 2.100000
288.092590 12.400000
289.094540 1.200000
291.158810 1.000000
299.082820 1.300000
299.093510 1.500000
311.078520 3.000000
311.101290 3.000000
312.093140 1.400000
322.067440 2.100000
323.092190 1.500000
325.113190 1.700000
329.087250 7.700000
329.106320 6.300000
335.590270 1.200000
352.111150 1.100000
353.100310 1.400000
354.093780 1.100000
354.120330 2.300000
365.104280 1.000000
366.085750 2.500000
366.122070 1.100000
369.094420 1.300000
397.129550 9.400000
397.147610 1.800000
398.147370 1.200000
415.112950 5.800000
415.144780 8.000000
431.108800 1.100000
431.118770 2.900000
431.138490 3.300000
432.109620 1.100000
433.054720 1.500000
433.110230 1.700000
433.129940 4.500000
433.152190 23.900000
434.147550 9.300000
439.156770 1.100000
449.118160 1.700000
449.139400 7.400000
449.162350 1.000000
450.133150 1.000000
450.157750 2.000000
473.155910 1.000000
475.160340 2.000000
479.097440 1.000000
491.114410 1.000000
541.171510 3.100000
577.194340 2.400000
595.173520 1.400000
595.198300 11.600000
595.215520 8.800000

NAME: isosakuranetin-7-O-rutinoside
SCANNUMBER: RIKEN_MONA_416
PRECURSORMZ: 595.202132
PRECURSORTYPE: [M+H]+
IONMODE: Positive
SPECTRUMTYPE: MS2
COLLISIONENERGY: 10 eV
FORMULA: C28H34O14
SMILES: COc1ccc([C@@H]2CC(=O)c3c(O)cc(O[C@@H]4O[C@H](CO[C@@H]5O[C@@H](C)[C@H](O)[C@@H](O)[C@H]5O)[C@@H](O)[C@H](O)[C@H]4O)cc3O2)cc1
INCHI: InChI=1S/C28H34O14/c1-11-21(31)23(33)25(35)27(39-11)38-10-19-22(32)24(34)26(36)28(42-19)40-14-7-15(29)20-16(30)9-17(41-18(20)8-14)12-3-5-13(37-2)6-4-12/h3-8,11,17,19,21-29,31-36H,9-10H2,1-2H3/t11-,17-,19+,21-,22+,23+,24-,25+,26+,27+,28+/m0/s1
INCHIKEY: RMCRQBAILCLJGU-HIBKWJPLSA-N
RETENTIONTIME: 5.327617
COMMENT: dataset=RIKEN_MONA; source_file=external_data/raw_libraries/RIKEN_MONA.xlsx; source_row=416; RT_sec=319.65702
Num Peaks: 146
59.386950 0.800000
71.041090 0.800000
71.049520 2.000000
72.054030 2.100000
73.053910 1.500000
85.026410 6.000000
85.032070 2.500000
87.046080 0.900000
99.047330 1.100000
111.049770 1.700000
129.044570 1.100000
129.054730 8.300000
135.082350 0.900000
145.050610 2.400000
147.059690 0.700000
147.065610 2.300000
151.035980 0.900000
153.007050 1.100000
153.017840 6.900000
154.013550 0.700000
155.016240 1.000000
161.052950 1.500000
161.060730 1.800000
161.068250 0.900000
165.021500 1.200000
171.580430 1.300000
179.022460 0.900000
191.031600 1.300000
195.008300 1.000000
195.028820 20.900000
196.024520 1.500000
207.030240 1.100000
214.839290 1.000000
217.027440 1.200000
217.058560 1.200000
219.020280 1.600000
219.030040 2.100000
237.029660 0.700000
237.053960 1.400000
245.035140 1.300000
245.044240 1.700000
245.051040 0.700000
245.080090 1.200000
246.028980 1.000000
246.040330 1.100000
246.049680 1.400000
256.090180 0.700000
261.027100 1.100000
261.045590 1.300000
261.347780 0.700000
262.054350 1.100000
263.048370 2.900000
263.060760 6.300000
263.856480 0.700000
264.068540 2.800000
267.611660 0.700000
279.038600 0.900000
279.058560 0.900000
280.052830 1.000000
281.060850 3.900000
281.254460 0.900000
282.064940 0.700000
285.456210 0.700000
286.781220 0.700000
287.035130 0.700000
287.092500 100.000000
287.340180 0.700000
288.089260 9.500000
288.099580 6.700000
288.110900 1.900000
289.101620 1.900000
290.103360 1.100000
295.607240 0.800000
297.059270 0.900000
298.055660 0.700000
299.091770 1.700000
300.097260 0.700000
313.056850 0.900000
329.088870 2.600000
329.104060 5.000000
329.115450 2.200000
330.100590 1.700000
335.559140 0.900000
337.117160 1.400000
338.104460 0.900000
339.090450 1.000000
353.059750 1.200000
353.090910 1.900000
353.104370 1.100000
353.126370 1.200000
354.089540 0.900000
354.100710 1.300000
355.107270 0.900000
363.089420 0.700000
377.103820 0.900000
379.101140 0.900000
380.098110 1.600000
380.110110 0.700000
395.116940 0.700000
396.104310 1.000000
396.116940 1.100000
396.134920 1.000000
397.107210 0.800000
397.128300 10.400000
398.119200 1.900000
398.134120 1.100000
399.138030 0.800000
407.116850 1.400000
413.101590 0.900000
413.146760 0.700000
415.111270 1.600000
415.127990 5.900000
415.147430 2.100000
415.268190 1.100000
419.141270 0.700000
431.110960 1.400000
431.127780 4.400000
431.151210 1.300000
432.137820 2.100000
433.090360 2.000000
433.147370 33.200000
434.120120 0.900000
434.152800 5.400000
435.166080 1.700000
440.135770 0.800000
443.114810 1.200000
447.108640 0.700000
449.100920 1.300000
449.127930 8.300000
449.152100 8.600000
450.142700 7.300000
457.145320 2.700000
463.127320 0.900000
473.126980 2.100000
479.125950 1.400000
512.124510 1.600000
541.183230 1.000000
559.169560 1.300000
559.193480 1.500000
560.174380 1.300000
577.226620 1.000000
594.831240 1.100000
595.050660 1.000000
595.148440 1.300000
595.195740 24.400000
595.225400 3.900000

NAME: p-Coumaraldehyde
SCANNUMBER: RIKEN_MONA_417
PRECURSORMZ: 149.059706
PRECURSORTYPE: [M+H]+
IONMODE: Positive
SPECTRUMTYPE: MS2
COLLISIONENERGY: 10 eV
FORMULA: C9H8O2
SMILES: O=C/C=C/c1ccc(O)cc1
INCHI: InChI=1S/C9H8O2/c10-7-1-2-8-3-5-9(11)6-4-8/h1-7,11H/b2-1+
INCHIKEY: CJXMVKYNVIGQBS-OWOJBTEDSA-N
RETENTIONTIME: 4.530533
COMMENT: dataset=RIKEN_MONA; source_file=external_data/raw_libraries/RIKEN_MONA.xlsx; source_row=417; RT_sec=271.83198
Num Peaks: 33
55.017540 0.600000
56.023830 0.600000
77.036830 1.500000
77.043190 1.400000
88.980460 0.600000
91.050050 1.800000
91.059150 0.600000
93.066950 3.500000
93.071590 1.700000
95.045910 0.800000
103.053790 17.100000
104.055890 0.600000
107.013980 0.800000
107.047410 3.400000
107.057850 0.800000
108.018680 0.600000
119.047510 1.800000
120.059750 1.400000
121.025800 0.600000
121.056750 3.900000
121.067920 10.300000
122.028070 0.600000
122.068020 0.700000
122.077280 0.700000
124.031540 0.600000
131.048970 57.700000
132.049060 4.000000
132.056200 4.900000
133.059690 1.000000
147.050030 3.400000
148.054440 0.700000
149.058820 100.000000
149.076450 1.300000

NAME: p-Coumaryl alcohol
SCANNUMBER: RIKEN_MONA_418
PRECURSORMZ: 149.060803
PRECURSORTYPE: [M-H]-
IONMODE: Negative
SPECTRUMTYPE: MS2
COLLISIONENERGY: 10 eV
FORMULA: C9H10O2
SMILES: OC/C=C/c1ccc(O)cc1
INCHI: InChI=1S/C9H10O2/c10-7-1-2-8-3-5-9(11)6-4-8/h1-6,10-11H,7H2/b2-1+
INCHIKEY: PTNLHDGQWUGONS-OWOJBTEDSA-N
RETENTIONTIME: 3.759650
COMMENT: dataset=RIKEN_MONA; source_file=external_data/raw_libraries/RIKEN_MONA.xlsx; source_row=418; RT_sec=225.579
Num Peaks: 6
103.052540 10.600000
130.039460 33.000000
131.047090 100.000000
132.056610 9.600000
149.053510 11.200000
149.064210 9.600000

NAME: p-Hydroxybenzyl glucosinolate
SCANNUMBER: RIKEN_MONA_419
PRECURSORMZ: 424.037762
PRECURSORTYPE: [M-H]-
IONMODE: Negative
SPECTRUMTYPE: MS2
COLLISIONENERGY: 10 eV
FORMULA: C14H19NO10S2
SMILES: O=S(=O)(O)ON=C(Cc1ccc(O)cc1)SC1OC(CO)C(O)C(O)C1O
INCHI: InChI=1S/C14H19NO10S2/c16-6-9-11(18)12(19)13(20)14(24-9)26-10(15-25-27(21,22)23)5-7-1-3-8(17)4-2-7/h1-4,9,11-14,16-20H,5-6H2,(H,21,22,23)
INCHIKEY: WWBNBPSEKLOHJU-UHFFFAOYSA-N
RETENTIONTIME: 2.003917
COMMENT: dataset=RIKEN_MONA; source_file=external_data/raw_libraries/RIKEN_MONA.xlsx; source_row=419; RT_sec=120.235019999999
Num Peaks: 50
71.014020 1.100000
74.991060 9.500000
79.957250 3.900000
85.028880 2.700000
89.021430 0.600000
95.951410 16.300000
96.959780 57.000000
97.865030 0.600000
97.950210 2.300000
98.957170 4.200000
98.963260 1.100000
99.018810 0.500000
101.029710 1.100000
101.620000 0.500000
117.021180 0.600000
118.030890 0.600000
119.032820 1.800000
121.953200 0.700000
127.922220 1.300000
135.825740 1.100000
138.968770 1.600000
138.974720 0.600000
148.038160 1.900000
149.006850 1.200000
149.020250 0.500000
182.033830 4.500000
183.032240 0.900000
195.035340 3.900000
200.983780 0.500000
227.022380 1.200000
227.991330 1.200000
230.974850 0.500000
230.985380 2.100000
232.974640 0.500000
242.003400 1.000000
259.012480 5.700000
259.021880 2.700000
259.033080 0.500000
261.008360 0.500000
274.019440 0.500000
274.984340 2.800000
275.994780 1.000000
276.811040 0.800000
340.674590 0.700000
341.827910 0.700000
344.091740 0.800000
346.488400 0.700000
423.020570 0.700000
424.038090 100.000000
424.068270 1.700000

NAME: trans-4-Coumaric acid
SCANNUMBER: RIKEN_MONA_420
PRECURSORMZ: 165.054621
PRECURSORTYPE: [M+H]+
IONMODE: Positive
SPECTRUMTYPE: MS2
COLLISIONENERGY: 10 eV
FORMULA: C9H8O3
SMILES: O=C(O)/C=C/c1ccc(O)cc1
INCHI: InChI=1S/C9H8O3/c10-8-4-1-7(2-5-8)3-6-9(11)12/h1-6,10H,(H,11,12)/b6-3+
INCHIKEY: NGSWKAQJJWESNS-ZZXKWVIFSA-N
RETENTIONTIME: 4.007650
COMMENT: dataset=RIKEN_MONA; source_file=external_data/raw_libraries/RIKEN_MONA.xlsx; source_row=420; RT_sec=240.459
Num Peaks: 15
77.038140 0.800000
91.054310 8.400000
92.053680 1.600000
95.050500 1.300000
99.557260 1.000000
119.028060 0.800000
119.046420 17.200000
119.053340 15.000000
147.044110 100.000000
147.361910 0.900000
148.039320 2.400000
148.049000 8.100000
152.545750 0.800000
165.054370 6.700000
165.062230 2.600000

NAME: trans-Caffeic acid
SCANNUMBER: RIKEN_MONA_421
PRECURSORMZ: 181.049535
PRECURSORTYPE: [M+H]+
IONMODE: Positive
SPECTRUMTYPE: MS2
COLLISIONENERGY: 10 eV
FORMULA: C9H8O4
SMILES: O=C(O)/C=C/c1ccc(O)c(O)c1
INCHI: InChI=1S/C9H8O4/c10-7-3-1-6(5-8(7)11)2-4-9(12)13/h1-5,10-11H,(H,12,13)/b4-2+
INCHIKEY: QAIPRVGONGVQAS-DUXPYHPUSA-N
RETENTIONTIME: 3.436733
COMMENT: dataset=RIKEN_MONA; source_file=external_data/raw_libraries/RIKEN_MONA.xlsx; source_row=421; RT_sec=206.20398
Num Peaks: 16
89.037340 13.000000
97.968360 13.500000
107.035620 13.500000
117.029530 45.100000
117.043090 15.000000
133.019030 17.600000
133.026660 14.000000
134.039170 13.000000
135.044280 76.200000
145.027940 19.200000
163.018740 10.900000
163.034970 100.000000
163.042130 71.500000
164.044340 11.400000
180.044420 18.700000
181.042890 11.900000

NAME: trans-Cinnamic acid
SCANNUMBER: RIKEN_MONA_422
PRECURSORMZ: 149.059706
PRECURSORTYPE: [M+H]+
IONMODE: Positive
SPECTRUMTYPE: MS2
COLLISIONENERGY: 10 eV
FORMULA: C9H8O2
SMILES: O=C(O)/C=C/c1ccccc1
INCHI: InChI=1S/C9H8O2/c10-9(11)7-6-8-4-2-1-3-5-8/h1-7H,(H,10,11)/b7-6+
INCHIKEY: WBYWAXJHAXSJNI-VOTSOKGWSA-N
RETENTIONTIME: 5.840066
COMMENT: dataset=RIKEN_MONA; source_file=external_data/raw_libraries/RIKEN_MONA.xlsx; source_row=422; RT_sec=350.40396
Num Peaks: 7
77.042270 4.200000
82.520670 3.500000
103.054860 16.700000
131.050980 100.000000
132.046570 4.200000
132.572200 5.600000
149.056530 5.200000

NAME: trans-Ferulic acid
SCANNUMBER: RIKEN_MONA_423
PRECURSORMZ: 195.065185
PRECURSORTYPE: [M+H]+
IONMODE: Positive
SPECTRUMTYPE: MS2
COLLISIONENERGY: 10 eV
FORMULA: C10H10O4
SMILES: COc1cc(/C=C/C(=O)O)ccc1O
INCHI: InChI=1S/C10H10O4/c1-14-9-6-7(2-4-8(9)11)3-5-10(12)13/h2-6,11H,1H3,(H,12,13)/b5-3+
INCHIKEY: KSEBMYQBYZTDHS-HWKANZROSA-N
RETENTIONTIME: 4.239517
COMMENT: dataset=RIKEN_MONA; source_file=external_data/raw_libraries/RIKEN_MONA.xlsx; source_row=423; RT_sec=254.37102
Num Peaks: 31
80.522290 2.900000
95.016760 1.900000
102.999890 1.800000
108.958030 2.200000
113.605630 2.000000
115.965640 3.100000
117.032180 5.900000
118.036350 6.600000
119.052470 3.100000
123.041680 7.200000
134.039750 4.300000
145.010640 2.400000
145.026140 19.500000
146.034090 3.100000
149.032420 3.900000
149.055370 11.900000
149.062990 5.900000
150.066160 2.300000
152.963820 3.400000
156.967900 3.200000
158.364590 2.100000
162.041870 2.500000
167.113490 2.000000
177.055680 100.000000
178.059310 2.700000
179.056490 3.100000
179.069430 4.800000
193.047320 3.900000
194.047650 3.500000
194.060290 3.800000
195.069260 13.000000

NAME: trans-piceid
SCANNUMBER: RIKEN_MONA_424
PRECURSORMZ: 391.138744
PRECURSORTYPE: [M+H]+
IONMODE: Positive
SPECTRUMTYPE: MS2
COLLISIONENERGY: 10 eV
FORMULA: C20H22O8
SMILES: OCC1O[C@@H](Oc2cc(O)cc(/C=C/c3ccc(O)cc3)c2)C(O)[C@@H](O)[C@@H]1O
INCHI: InChI=1S/C20H22O8/c21-10-16-17(24)18(25)19(26)20(28-16)27-15-8-12(7-14(23)9-15)2-1-11-3-5-13(22)6-4-11/h1-9,16-26H,10H2/b2-1+/t16?,17-,18+,19?,20-/m1/s1
INCHIKEY: HSTZMXCBWJGKHG-GHHIHIOFSA-N
RETENTIONTIME: 4.049550
COMMENT: dataset=RIKEN_MONA; source_file=external_data/raw_libraries/RIKEN_MONA.xlsx; source_row=424; RT_sec=242.973
Num Peaks: 35
91.054710 2.200000
107.043310 1.900000
111.040570 5.000000
119.045690 3.900000
127.034190 1.900000
135.043870 2.600000
135.057330 1.900000
143.578220 2.000000
164.282330 2.900000
173.094590 2.900000
181.065080 3.100000
183.078830 5.400000
195.084930 1.900000
199.075940 2.500000
202.081040 1.800000
209.052570 2.500000
211.078930 5.300000
213.053210 2.200000
227.066380 1.800000
227.078840 2.200000
228.077870 26.500000
229.086030 100.000000
230.083020 10.400000
230.098180 4.300000
232.098630 2.100000
241.090850 4.100000
253.086290 6.600000
271.095090 5.900000
271.106480 2.100000
295.094420 2.900000
319.086520 2.200000
355.097050 2.100000
355.127440 2.000000
390.129970 1.900000
391.159060 1.900000

NAME: trans-pterostilbene
SCANNUMBER: RIKEN_MONA_425
PRECURSORMZ: 257.117221
PRECURSORTYPE: [M+H]+
IONMODE: Positive
SPECTRUMTYPE: MS2
COLLISIONENERGY: 10 eV
FORMULA: C16H16O3
SMILES: COc1cc(/C=C/c2ccc(O)cc2)cc(OC)c1
INCHI: InChI=1S/C16H16O3/c1-18-15-9-13(10-16(11-15)19-2)4-3-12-5-7-14(17)8-6-12/h3-11,17H,1-2H3/b4-3+
INCHIKEY: VLEUZFDZJKSGMX-ONEGZZNKSA-N
RETENTIONTIME: 8.020467
COMMENT: dataset=RIKEN_MONA; source_file=external_data/raw_libraries/RIKEN_MONA.xlsx; source_row=425; RT_sec=481.22802
Num Peaks: 75
91.052880 1.500000
103.056110 0.700000
105.069270 4.700000
107.050870 1.100000
111.044960 1.300000
119.047340 2.700000
121.030490 1.300000
121.065090 2.700000
133.064150 9.000000
135.042390 0.900000
135.078080 0.500000
135.082820 1.700000
137.054660 0.800000
137.062030 1.500000
138.062190 0.700000
139.076660 0.500000
141.065320 1.300000
145.067780 1.300000
148.052340 0.700000
149.059950 1.800000
150.064740 0.700000
151.074770 1.900000
152.063340 1.100000
153.067890 2.400000
154.075520 1.300000
155.088260 0.900000
157.063580 1.300000
159.079680 0.900000
163.073030 0.500000
164.079990 0.800000
165.068970 5.300000
166.073230 0.800000
167.089630 0.600000
168.054900 0.700000
171.079500 1.600000
179.083770 1.500000
179.093840 0.500000
181.065630 7.300000
182.067350 2.200000
182.075970 1.800000
183.075960 1.200000
183.086980 0.700000
187.077330 0.700000
193.063870 1.400000
194.074890 0.800000
195.083420 0.700000
197.059100 1.300000
197.098100 1.300000
198.098010 0.500000
199.073720 2.200000
200.082240 0.600000
207.074460 0.800000
209.062130 0.600000
210.067320 3.800000
211.072780 4.000000
211.083010 1.700000
212.075180 0.600000
213.092740 1.200000
224.087010 1.000000
225.082930 1.700000
225.094040 2.600000
226.097660 3.000000
227.070710 0.900000
227.102040 0.500000
228.077840 0.900000
239.104350 1.500000
242.085860 2.400000
242.097980 3.300000
243.094850 1.200000
255.097980 1.000000
255.107120 1.400000
256.102420 2.900000
256.109440 7.100000
257.117160 100.000000
257.165770 0.800000

